LAMMPS (22 Aug 2018)
units	metal
boundary p p p
atom_style full
bond_style harmonic
angle_style harmonic
dihedral_style opls
restart 1000 rst.1 rst.2
variable		cut_off equal 10.0
timestep	    1e-3
read_restart  ./NPT.rst
  restoring atom style full from restart
  orthogonal box = (-4.79789 -4.79789 -18.9799) to (65.8012 65.8012 167.023)
  2 by 4 by 8 MPI processor grid
  restoring pair style hybrid/overlay from restart
  restoring bond style harmonic from restart
  restoring angle style harmonic from restart
  restoring dihedral style opls from restart
  24000 atoms
  13680 bonds
  25920 angles
  32400 dihedrals
  4 = max # of 1-2 neighbors
  6 = max # of 1-3 neighbors
  12 = max # of 1-4 neighbors
  16 = max # of special neighbors
include '../bond.coeff'
## IPA bond information in metal units (energy ev)

#Bond Coeffs

bond_coeff   1  11.63090054    1.5290 # C3H-C2H
bond_coeff   2  14.75564412    1.0900 # C3H-H
bond_coeff   3  11.63090054    1.5290 # C2H-C2H
bond_coeff   4  14.75564412    1.0900 # C2H-H

#Angle Coeffs

angle_coeff   1   2.53231622  112.7000 # C3H-C2H-C2H
angle_coeff   2   1.62746094  110.7000 # C3H-C2H-H
angle_coeff   3   1.62746094  110.7000 # C2H-C3H-H
angle_coeff   4   2.53231622  112.7000 # C2H-C2H-C2H
angle_coeff   5   1.62746094  110.7000 # C2H-C2H-H
angle_coeff   6   1.43214358  107.8000 # H-C3H-H
angle_coeff   7   1.43214358  107.8000 # H-C2H-H

#Dihedral Coeffs

dihedral_coeff   1    0.07551166	-0.0068138			0.0121086	0 # C3H-C2H-C2H-C2H
dihedral_coeff   2    0				0					0.0158844	0 # C3H-C2H-C2H-H
dihedral_coeff   3    0.07551166	-0.0068138			0.0121086	0 # C2H-C2H-C2H-C2H
dihedral_coeff   4    0				0					0.0158844	0 # C2H-C2H-C2H-H
dihedral_coeff   5    0				0					0.0158844	0 # H-C3H-C2H-C2H
dihedral_coeff   6    0				0					0.0138012	0 # H-C3H-C2H-H
dihedral_coeff   7    0				0					0.0138012	0 # H-C2H-C2H-H

## metal time unit is picoseconds, 1 ps = 1000 fs,
## engery unit is eV, 1 ev = 23 kcal/mol       1 kcal/mol = 0.043 ev
pair_style    	hybrid/overlay lj/cut/coul/long ${cut_off} ${cut_off}  buck/coul/long ${cut_off} table linear 39901
pair_style    	hybrid/overlay lj/cut/coul/long 10 ${cut_off}  buck/coul/long ${cut_off} table linear 39901
pair_style    	hybrid/overlay lj/cut/coul/long 10 10  buck/coul/long ${cut_off} table linear 39901
pair_style    	hybrid/overlay lj/cut/coul/long 10 10  buck/coul/long 10 table linear 39901
pair_modify mix geometric
special_bonds lj/coul 0.0 0.0 0.5
kspace_style pppm 1.0e-4
fix fSHAKE all shake 0.0001 20 0 b 2 4 # modified to the hexane shaked bond information
  0 = # of size 2 clusters
  2880 = # of size 3 clusters
  1440 = # of size 4 clusters
  0 = # of frozen angles
include '../pair.coeff_silica'

pair_coeff    	4 4 buck/coul/long 0.0 1.0 0.0                #No interactions between Si atoms
pair_coeff   	4 5 buck/coul/long 18003.757200 0.205205 133.538100
pair_coeff    	5 5 buck/coul/long 1388.773000  0.362319 175.000000         #BKS interaction in PRL 64 1955 (1990)
pair_modify   	shift yes
pair_coeff    	4 5 table ../potential_SiO2.TPF Si-O ${cut_off}
pair_coeff    	4 5 table ../potential_SiO2.TPF Si-O 10
pair_coeff    	5 5 table ../potential_SiO2.TPF O-O ${cut_off}           #See the potential file for more information
pair_coeff    	5 5 table ../potential_SiO2.TPF O-O 10           
WARNING: 1 of 39901 force values in table are inconsistent with -dE/dr.
  Should only be flagged at inflection points (../pair_table.cpp:481)
include '../pair.coeff_mix'
pair_coeff  1  1   lj/cut/coul/long    0.00286440    3.50000000
pair_coeff  1  2   lj/cut/coul/long    0.00286440    3.50000000
pair_coeff  1  3   lj/cut/coul/long    0.00193118    3.00000000
pair_coeff  1  4   lj/cut/coul/long    0.00223045    3.77671685
pair_coeff  1  5   lj/cut/coul/long    0.00532389    3.17989244

pair_coeff  2  2   lj/cut/coul/long    0.00286440    3.50000000
pair_coeff  2  3   lj/cut/coul/long    0.00193118    3.00000000
pair_coeff  2  4   lj/cut/coul/long    0.00223045    3.77671685
pair_coeff  2  5   lj/cut/coul/long    0.00532389    3.17989244

pair_coeff  3  3   lj/cut/coul/long    0.00130200    2.50000000
pair_coeff  3  4   lj/cut/coul/long    0.00150377    3.27671685
pair_coeff  3  5   lj/cut/coul/long    0.00358937    2.67989244

# change this for different systems
group liquid type 1 2 3
14400 atoms in group liquid
group silica type 4 5
9600 atoms in group silica

neighbor		3.0 bin
neigh_modify	check yes every 1 delay 0 page  100000 one 10000

reset_timestep 	0
variable    dt equal 0.001
timestep     ${dt}
timestep     0.001
variable T equal 300
# 1 pascal is equal to 9.8692316931427E-6 atm, or 1.0E-5 bar.
variable           vhigh            equal    1.0
variable           vlow             equal    0.0
variable           bar2Pa           equal    1e5
variable           ps2s             equal    1.0e-12
variable           PaS2mPaS         equal    1000
variable           viscoeff         equal    v_bar2Pa*v_ps2s*v_PaS2mPaS



variable    p equal 400     # correlation length
variable    s equal 5       # sample interval
variable    d equal $p*$s   # dump interval
variable    d equal 400*$s   
variable    d equal 400*5   

# convert from LAMMPS real units to SI
variable    kB equal 1.3806504e-23    # [J/K] Boltzmann
variable    atm2Pa equal 101325.0
variable    A2m equal 1.0e-10
variable    fs2s equal 1.0e-15
# convert from LAMMPS metal units to SI
# variable    convertM2S equal ${bar2Pa}*${bar2Pa}*${ps2s}*${A2m}*${A2m}*${A2m}
variable    convertM2S equal ${bar2Pa}*${bar2Pa}*${ps2s}*${A2m}*${A2m}*${A2m}*${PaS2mPaS}
variable    convertM2S equal 100000*${bar2Pa}*${ps2s}*${A2m}*${A2m}*${A2m}*${PaS2mPaS}
variable    convertM2S equal 100000*100000*${ps2s}*${A2m}*${A2m}*${A2m}*${PaS2mPaS}
variable    convertM2S equal 100000*100000*1e-12*${A2m}*${A2m}*${A2m}*${PaS2mPaS}
variable    convertM2S equal 100000*100000*1e-12*1e-10*${A2m}*${A2m}*${PaS2mPaS}
variable    convertM2S equal 100000*100000*1e-12*1e-10*1e-10*${A2m}*${PaS2mPaS}
variable    convertM2S equal 100000*100000*1e-12*1e-10*1e-10*1e-10*${PaS2mPaS}
variable    convertM2S equal 100000*100000*1e-12*1e-10*1e-10*1e-10*1000

compute            per_liquid_vol          liquid     voronoi/atom
compute            liquid_vol              liquid     reduce   sum   c_per_liquid_vol[1]
variable           real_liquid_vol equal  c_liquid_vol
variable           real_liquid_thickness   equal      c_liquid_vol/(lx*ly)

compute    myPress  liquid stress/atom NULL
compute    p 		liquid reduce sum c_myPress[4] c_myPress[5] c_myPress[6] # sum the pxy pxz pyz

variable liquidvol equal 166202


fix       nveall 	all 	 	 	nve


variable lpxy equal c_p[1]/${liquidvol}
variable lpxy equal c_p[1]/166202
variable lpxz equal c_p[2]/${liquidvol}
variable lpxz equal c_p[2]/166202
variable lpyz equal c_p[3]/${liquidvol}
variable lpyz equal c_p[3]/166202

fix          SS all ave/correlate $s $p $d              v_lpxy v_lpxz v_lpyz type auto file S0St.dat ave running
fix          SS all ave/correlate 5 $p $d              v_lpxy v_lpxz v_lpyz type auto file S0St.dat ave running
fix          SS all ave/correlate 5 400 $d              v_lpxy v_lpxz v_lpyz type auto file S0St.dat ave running
fix          SS all ave/correlate 5 400 2000              v_lpxy v_lpxz v_lpyz type auto file S0St.dat ave running

variable     scale equal ${convertM2S}/(${kB}*$T)*$s*${dt}*${liquidvol}
variable     scale equal 1e-29/(${kB}*$T)*$s*${dt}*${liquidvol}
variable     scale equal 1e-29/(1.3806504e-23*$T)*$s*${dt}*${liquidvol}
variable     scale equal 1e-29/(1.3806504e-23*300)*$s*${dt}*${liquidvol}
variable     scale equal 1e-29/(1.3806504e-23*300)*5*${dt}*${liquidvol}
variable     scale equal 1e-29/(1.3806504e-23*300)*5*0.001*${liquidvol}
variable     scale equal 1e-29/(1.3806504e-23*300)*5*0.001*166202

variable     v11 equal trap(f_SS[3])*${scale}
variable     v11 equal trap(f_SS[3])*2.00632494173277e-06
variable     v22 equal trap(f_SS[4])*${scale}
variable     v22 equal trap(f_SS[4])*2.00632494173277e-06
variable     v33 equal trap(f_SS[5])*${scale}
variable     v33 equal trap(f_SS[5])*2.00632494173277e-06

variable     vis equal (v_v11+v_v22+v_v33)/3.0

compute	     mobile liquid temp

thermo       $d
thermo       2000
thermo_style       custom step c_mobile temp press pe ke etotal  c_liquid_vol v_v11 v_v22 v_v33 v_vis
dump               3 all custom 20000 nve.lammpstrj id type x y z vx vy vz fx fy fz
run                5000000
PPPM initialization ...
  using 12-bit tables for long-range coulomb (../kspace.cpp:321)
  G vector (1/distance) = 0.272888
  grid = 45 45 90
  stencil order = 5
  estimated absolute RMS force accuracy = 0.00139845
  estimated relative force accuracy = 9.71167e-05
  using double precision FFTs
  3d grid and FFT values/proc = 9396 4050
Unused restart file global fix info:
  fix style: npt, fix ID: 1
Neighbor list info ...
  update every 1 steps, delay 0 steps, check yes
  max neighbors/atom: 10000, page size: 100000
  master list distance cutoff = 13
  ghost atom cutoff = 13
  binsize = 6.5, bins = 11 11 29
  4 neighbor lists, perpetual/occasional/extra = 4 0 0
  (1) pair lj/cut/coul/long, perpetual, skip from (4)
      attributes: half, newton on
      pair build: skip
      stencil: none
      bin: none
  (2) pair buck/coul/long, perpetual, skip from (4)
      attributes: half, newton on
      pair build: skip
      stencil: none
      bin: none
  (3) pair table, perpetual, skip from (4)
      attributes: half, newton on
      pair build: skip
      stencil: none
      bin: none
  (4) neighbor class addition, perpetual
      attributes: half, newton on
      pair build: half/bin/newton
      stencil: half/bin/3d/newton
      bin: standard
Per MPI rank memory allocation (min/avg/max) = 3.412 | 17.15 | 29.11 Mbytes
Step c_mobile Temp Press PotEng KinEng TotEng c_liquid_vol v_v11 v_v22 v_v33 v_vis 
       0    302.05252    302.91887   -64.491837   -183009.18    808.12699   -182201.05    166202.82   0.01667358   0.11724944   0.12792774  0.087283586 
    2000    300.78217     302.1488   -175.20576   -183007.08     806.0726   -182201.01    165154.35 -0.098250048   0.35254539   0.44624379   0.23351304 
    4000    301.57189    302.40642   -197.84412   -183007.63    806.75988   -182200.87    164164.79   0.10319143    1.0919689   0.10831183   0.43449073 
    6000    304.65663     304.6041   -279.80659   -183013.68    812.62286   -182201.06    163947.95  0.072682237   0.78266447    0.2135371    0.3562946 
    8000    302.46506     303.3781   -44.095397   -183010.38    809.35213   -182201.02    164306.35   0.35109946   0.54005879   0.11327192   0.33481006 
   10000    300.84933    303.17418   -181.02897   -183009.84    808.80811   -182201.03    165117.67   0.32960251   0.48591205   0.24307671   0.35286376 
   12000    298.78635     301.7167   -331.27595   -183006.04    804.91986   -182201.12     165719.9   0.42730638   0.41373272   0.17715437   0.33939782 
   14000    303.23487    301.78017   -257.28464   -183006.02    805.08918   -182200.93    165876.54   0.65833256   0.45714625   0.21152267   0.44233383 
   16000    300.87123    302.35327   -177.84636   -183007.61    806.61809   -182200.99     165720.8   0.56468552    0.4045184   0.18570169   0.38496854 
   18000    301.53714    301.87933   -223.33123   -183006.34    805.35373   -182200.98    165416.54   0.51191723   0.37692153   0.13388665   0.34090847 
   20000    305.60501    304.85987   -140.69199   -183014.27     813.3052   -182200.96     164626.5   0.51454251   0.33518452   0.12430358   0.32467687 
   22000    305.68736    303.78795    60.496534   -183011.43    810.44554   -182200.99    163705.34   0.47669842   0.31866702   0.10843636   0.30126727 
   24000    303.46498    303.06691   -57.444926   -183009.36    808.52194   -182200.84    163006.77   0.44518611   0.29558069   0.10755536   0.28277405 
   26000    303.94573    303.66846   -22.817009   -183011.02    810.12676   -182200.89     163630.8   0.47880573   0.29817726   0.19380576   0.32359625 
   28000    302.69274    302.06999    -124.8669   -183006.85    805.86236   -182200.99    164087.29    0.4681288   0.27651266   0.25370046   0.33278064 
   30000    302.22943    303.05886    47.146596   -183009.32    808.50047   -182200.82    164064.33   0.50058865   0.25030201   0.24566726   0.33218597 
   32000    303.70792    303.17406   -175.22366   -183009.68    808.80781   -182200.87    163345.46   0.68728213   0.24237154   0.26554123    0.3983983 
   34000     304.9149    304.55073   -102.04264   -183013.38    812.48048    -182200.9    162732.48   0.73175865   0.24372062   0.29062054   0.42203327 
   36000    305.33574    303.10586    -189.6173   -183009.38    808.62585   -182200.75    162700.45   0.82703258   0.24033332   0.27479279   0.44738623 
   38000    302.33403    301.54164  0.093433617    -183005.3    804.45282   -182200.85    163433.13   0.90463379   0.22352583   0.25428254   0.46081405 
   40000    301.65397    300.89706   -245.45869    -183003.5    802.73321   -182200.77    165387.27   0.94270636   0.22573535   0.24023885   0.46956019 
   42000     302.0718    300.39553   -289.46953   -183001.91    801.39523   -182200.51    166462.02   0.93018677   0.21959443   0.23384758   0.46120959 
   44000    300.70729    301.94474   -102.52849   -183006.18    805.52822   -182200.65    167018.14   0.89730013   0.20890054   0.22825622   0.44481896 
   46000    300.79502    301.59964   -175.57527   -183005.26    804.60755   -182200.65    167292.79   0.85442783   0.19635223   0.23724485   0.42934164 
   48000      301.881    302.29921   -183.88438   -183007.24    806.47388   -182200.77    167427.69   0.88057103   0.19822545   0.22335106   0.43404918 
   50000    301.72057    301.77181   -189.83342   -183005.78    805.06688   -182200.71    166625.79   0.86493941    0.1940559   0.21308991   0.42402841 
   52000    301.83449    302.73731   -78.974871   -183008.25    807.64263   -182200.61    165697.77   0.93271017   0.18286083   0.20434256   0.43997119 
   54000    303.01986    303.57951   -161.48028   -183010.65    809.88945   -182200.76     164960.5   0.89032849   0.19557438   0.19940476   0.42843588 
   56000    305.68679    303.44713   -73.840929   -183010.06    809.53628   -182200.52     164807.8   0.87538478   0.17798345   0.19476547   0.41604457 
   58000    304.22287    303.63286   -319.84497   -183010.67    810.03177   -182200.64    165383.36   0.84005943   0.17900178   0.19092547   0.40332889 
   60000    304.78273    304.81231    59.845318   -183013.75    813.17832   -182200.57    165699.12   0.83444943   0.18552872   0.19835989   0.40611268 
   62000    305.10286    304.34699   -134.56316   -183012.53    811.93694    -182200.6    165561.16   0.83783137   0.18139121   0.19445251   0.40455836 
   64000    304.05489    303.00911   -146.51149   -183008.92    808.36774   -182200.55    165708.63   0.83466686   0.17865635   0.19226579     0.401863 
   66000    301.09594    302.92323   -169.51501   -183008.59    808.13862   -182200.45    166578.82   0.81173778   0.16766196   0.18878053   0.38939342 
   68000    297.51663    300.09844    44.772491   -183000.98    800.60265   -182200.38    167033.99   0.78962442   0.16273029   0.24277931   0.39837801 
   70000    303.32435    302.13572   -215.20227   -183006.56    806.03771   -182200.52    166335.06   0.77428508    0.1718305   0.23860048   0.39490535 
   72000    305.54072    305.23119   -259.37728   -183014.73    814.29581   -182200.43    165388.23   0.76903151     0.166914   0.24411874   0.39335475 
   74000    300.00299    300.90662   -44.398514    -183003.2    802.75872   -182200.44    164583.66   0.75847812   0.17341097   0.23927758   0.39038889 
   76000    306.92466    306.00744   -104.80998   -183016.94    816.36669   -182200.58    163453.87     0.772036   0.16597758   0.23024545   0.38941968 
   78000    305.08954    305.15193   -6.2241346   -183014.59    814.08437   -182200.51    163228.83   0.75131146   0.16489459   0.23348264   0.38322957 
   80000    302.88673    303.66285   -47.474413   -183010.82     810.1118   -182200.71    163854.54   0.74870449   0.16336834   0.22608328   0.37938537 
   82000    300.86839    302.24101   -117.63236    -183006.9     806.3186   -182200.58    165077.97   0.73440525   0.16059726   0.22111832   0.37204028 
   84000    304.11328     303.5585   -48.673574   -183010.34    809.83342   -182200.51    166198.06   0.71716754   0.17454968   0.21841518   0.37004413 
   86000    303.49336    304.11901     -209.707   -183011.81    811.32874   -182200.48    166707.89   0.70637518   0.17069108   0.21394823    0.3636715 
   88000    303.60915     303.6702   -249.26214   -183010.54    810.13141   -182200.41    166117.79   0.71315343   0.16657443   0.21484087   0.36485624 
   90000    304.88824    303.25607   -152.39205   -183009.49    809.02659   -182200.47     164776.4   0.74129446   0.16120122   0.21372189   0.37207252 
   92000    301.69394    301.38527    14.631509   -183004.45    804.03567   -182200.41    163631.48    0.7278565   0.18520571   0.21063693   0.37456638 
   94000    303.29565    303.39802   -146.39051   -183009.87    809.40528   -182200.46    163164.31   0.71285333    0.1870711   0.21514446   0.37168963 
   96000    303.87145    303.57896   -20.498207   -183010.27      809.888   -182200.38    163112.04   0.71068097   0.17906633    0.2194419   0.36972973 
   98000    303.06574    303.19333   -189.08938   -183009.28    808.85922   -182200.42    163550.42   0.70853024   0.18606562   0.21500684   0.36986757 
  100000    303.01457     304.2358   -469.00875   -183012.07    811.64032   -182200.43    164511.66   0.70808363   0.19205865   0.21267125   0.37093784 
  102000    303.04979    304.25965   -287.90141   -183012.14    811.70393   -182200.43    165169.18   0.69993364   0.18960561   0.21831725    0.3692855 
  104000    302.11983    303.06947   -109.49279   -183008.84    808.52878   -182200.31     165861.3   0.68427543   0.18467919   0.25311881   0.37402447 
  106000    300.68336    302.55181   -79.054773   -183007.45    807.14777   -182200.31    165976.72   0.67197723   0.18614875   0.29776585   0.38529727 
  108000    300.23393    302.04071   -67.685469   -183006.03    805.78425   -182200.25    166364.63   0.65813415   0.18398788   0.29270665   0.37827623 
  110000    303.52634    303.42836   -156.25581   -183009.78    809.48622   -182200.29     166521.6   0.64620625   0.18642164   0.28810197   0.37357662 
  112000    300.96382    302.51203    39.473637   -183007.22    807.04163   -182200.18    166481.12   0.63795598   0.17786222   0.28260665   0.36614162 
  114000    307.30156    305.97052   -231.84145   -183016.56    816.26818   -182200.29     165775.1   0.62282612   0.17297368   0.28327199    0.3596906 
  116000     302.7181    303.67775   -299.08898   -183010.33    810.15154   -182200.17    165073.69   0.61618331    0.1705067   0.28189441   0.35619481 
  118000     303.8372    305.28454   -177.64992   -183014.82    814.43814   -182200.38    165250.98   0.60758887   0.17049766   0.28048478   0.35285711 
  120000    302.97869    302.87112   -204.50606   -183008.27    807.99961   -182200.27    165436.93    0.6064502   0.16838395   0.28011668   0.35165028 
  122000    302.07518     301.6843     106.3674   -183005.02    804.83341   -182200.19     165780.5   0.61699076   0.16773735   0.27639861   0.35370891 
  124000    303.55001    303.68646   -245.76265   -183010.27    810.17478    -182200.1     165946.7   0.61191174   0.16835714   0.26550125   0.34859004 
  126000    302.56985    303.27691   -114.46461   -183009.25    809.08219   -182200.17    165669.87   0.61305668   0.16715236   0.26194393   0.34738432 
  128000    302.47754    304.70517   -291.72449   -183013.04    812.89249   -182200.15       165234   0.62438148   0.16853268   0.26793645   0.35361687 
  130000     301.1848    303.25782   -207.46564   -183009.38    809.03125   -182200.35    164754.93   0.61649155   0.16361745   0.27409265   0.35140055 
  132000    305.08342    304.85321   -184.17194   -183013.45    813.28742   -182200.17    164467.15   0.61988045   0.16461377   0.26911384   0.35120269 
  134000    305.65885    304.57972   -141.19639   -183012.75    812.55782   -182200.19    164044.24   0.61892912   0.16237186   0.26744797   0.34958298 
  136000    300.43229    302.97038   -356.11006   -183008.43    808.26443   -182200.17    163972.37   0.61322422   0.16674553   0.26537648   0.34844875 
  138000     300.4796    302.26125   -33.089632    -183006.4     806.3726   -182200.03    163878.22   0.61998934   0.16536845   0.25821678   0.34785819 
  140000    302.47244    303.88809   -134.25729   -183010.79    810.71269   -182200.08    164638.33   0.61161403   0.16388688   0.25934566   0.34494886 
  142000    300.76144    302.26665   -236.11077   -183006.45      806.387   -182200.06    164572.14   0.60542278   0.17012771   0.25936205   0.34497085 
  144000    302.01151    301.95243    53.671403   -183005.58    805.54874   -182200.03    164074.71   0.61200511   0.17829623   0.26150436    0.3506019 
  146000    299.41816    300.21939   -435.24703   -183001.11    800.92533   -182200.18    163693.75   0.60258756   0.17710417   0.25971508   0.34646893 
  148000    303.84631    303.87873    50.560452   -183010.98    810.68771   -182200.29    163774.12   0.59666486   0.17581058   0.26481584   0.34576376 
  150000    300.44796    301.57688   -273.88022   -183004.72    804.54684   -182200.17    164319.21   0.61026311   0.17279709   0.26633251   0.34979757 
  152000    301.20409    303.13904   -57.069649   -183008.89    808.71437   -182200.17    165028.23   0.59991521   0.16965894   0.28614661   0.35190692 
  154000    304.72078    302.95264   -10.844441   -183008.26    808.21709   -182200.04    164526.93   0.58970272   0.17010601   0.29080345   0.35020406 
  156000    303.88127    303.45755    59.547948   -183009.74     809.5641   -182200.17     164196.8   0.58444699   0.16696611    0.2902084   0.34720717 
  158000    304.06969    303.61188   -138.27024   -183010.21    809.97582   -182200.23    164079.76   0.58463369   0.16543853   0.28623223   0.34543481 
  160000    302.77321    303.13538   -259.27034   -183008.87    808.70461   -182200.17    164499.46   0.57627298   0.16933442   0.28290247   0.34283662 
  162000    300.28123    301.49027   -286.13713   -183004.38    804.31577   -182200.07    165327.57   0.57443527   0.17057126   0.27849776    0.3411681 
  164000    302.75318    302.68631   -114.58843   -183007.73    807.50657   -182200.22    165179.91   0.57789078   0.17413985   0.28114457   0.34439173 
  166000    304.29521     304.3677    36.356933   -183012.09    811.99218    -182200.1    165388.04   0.60727117   0.18086143   0.27958287   0.35590516 
  168000    302.60201    302.56518   -151.37835   -183007.44    807.18342   -182200.26    165850.46    0.6430193   0.18126013   0.27698764   0.36708902 
  170000    302.92521    303.40474    -28.47865   -183009.58     809.4232   -182200.16    166057.36    0.6372733   0.18092211   0.29336886   0.37052142 
  172000    303.51286    301.75021   -195.23255   -183005.06    805.00925   -182200.05    165737.02   0.63271905   0.17933976   0.29141922   0.36782601 
  174000     301.7072    301.80382   -238.06988   -183005.37    805.15226   -182200.22    165947.66   0.65382145   0.17731608   0.28823081   0.37312278 
  176000     300.1651    299.96694   -208.24955   -183000.19    800.25184   -182199.93    165567.65    0.6936443   0.17624717   0.28438229   0.38475792 
  178000    306.47288    303.08107   -538.74565    -183008.7    808.55971   -182200.14    164570.21   0.70203032    0.1748264   0.28102929     0.385962 
  180000    304.91217    303.31294    191.81557   -183009.37     809.1783   -182200.19     163177.7   0.70557122   0.17325078   0.28425113   0.38769104 
  182000    306.55442    304.53932   -114.76402   -183012.65    812.45003    -182200.2    162801.53   0.69935411   0.17262684   0.30919912   0.39372669 
  184000    304.32937    303.62214    -139.0531   -183010.21    810.00318   -182200.21    163309.04   0.69690176   0.17117651   0.30892687   0.39233505 
  186000    306.46365     304.4389    -176.8485   -183012.38    812.18214   -182200.19    164351.39   0.68889655   0.17018686   0.30143368   0.38683903 
  188000    301.40149    301.61951   -62.860225   -183004.73    804.66056   -182200.07    165913.91   0.68634679   0.18302238   0.30252635   0.39063184 
  190000    303.22002    301.55266    -121.3922   -183004.43    804.48222   -182199.95    167365.51   0.68292524   0.19377756    0.3045382     0.393747 
  192000    299.61749    300.63114   -311.13171   -183002.07    802.02379   -182200.05    167632.73   0.68211471   0.19310108   0.30087733   0.39203104 
  194000    300.93795    301.54449   -78.259815    -183004.5    804.46043   -182200.03    166745.45   0.68445163   0.19434498   0.29756557   0.39212073 
  196000    304.61927    302.52487   -336.51202   -183007.17     807.0759   -182200.09    165821.57   0.68531485   0.19673177   0.29540676   0.39248446 
  198000    306.49197    305.00544   -122.44633   -183013.67    813.69354   -182199.98    165294.81   0.69035378   0.19539514    0.2913629   0.39237061 
  200000    304.80457    302.65854    62.846006    -183007.4     807.4325   -182199.97    165553.02   0.69782715   0.19386512   0.29163216   0.39444148 
  202000    307.06366    302.93435    -250.6657    -183008.1    808.16831   -182199.93    165490.96   0.69617556   0.19625567    0.3087812   0.40040415 
  204000    308.54115    306.54246    110.11971   -183017.88    817.79403   -182200.09    165605.14   0.68917072   0.19437221   0.30337792   0.39564029 
  206000    305.32147    305.21331   -57.137614   -183014.27     814.2481   -182200.02    165295.15   0.68353011   0.19269299   0.29941024   0.39187778 
  208000    305.39752    304.05872   -331.35292   -183011.11    811.16791   -182199.94    165155.93   0.68324077   0.19194361   0.29639954   0.39052797 
  210000    305.21007    304.20918   -134.50893   -183011.68     811.5693   -182200.11    165233.55   0.67631038   0.18961591   0.29481795   0.38691475 
  212000    302.44143    300.08259   -352.71965   -183000.53    800.56037   -182199.97    165513.01   0.67011824   0.19394864   0.29463231   0.38623306 
  214000    305.84759     304.5482    72.823917    -183012.5    812.47372   -182200.03    165557.53   0.67023419   0.19387007   0.29133067   0.38514498 
  216000    304.02818    304.21241   -123.01864   -183011.73    811.57791   -182200.16    165459.04   0.67657005   0.19299096   0.28718783   0.38558294 
  218000    303.63166    303.74167   -179.45516   -183010.33    810.32208   -182200.01    165578.58    0.6812328   0.19140644    0.2832917   0.38531031 
  220000    302.49959     303.1952   -73.139874   -183008.91    808.86419   -182200.05     166472.1   0.69137087   0.18937821   0.28243877   0.38772929 
  222000    304.89669    303.28146   -130.12646   -183009.07    809.09433   -182199.98    167284.22   0.71287862   0.18849568   0.27967106   0.39368179 
  224000    302.35611     302.6378    -142.8654   -183007.37    807.37716   -182199.99    167271.15   0.73593647   0.18641596   0.28023387    0.4008621 
  226000    300.56649       301.71   -542.43941   -183004.84    804.90198   -182199.94    166320.97   0.76577265   0.18617367   0.27737711   0.40977448 
  228000    301.58192    303.40936   -168.49938   -183009.38    809.43553   -182199.94    165378.06   0.77396645   0.18457719   0.27491629   0.41115331 
  230000    305.00619    302.43607   -120.88902   -183006.67    806.83899   -182199.83    164407.14   0.78402679   0.18307445   0.27815424   0.41508516 
  232000    301.63253    302.83689   -428.56741   -183007.79    807.90828   -182199.88    164314.45   0.78635513   0.18136293   0.27174034    0.4131528 
  234000    301.54058    301.05992    -60.18911   -183003.11    803.16768   -182199.94    164934.32   0.78088814   0.18034416   0.27259342   0.41127524 
  236000    301.76497    303.11488   -179.79317   -183008.51    808.64991   -182199.86    165344.66   0.78679996   0.17947599   0.27102411   0.41243335 
  238000    300.21222    300.95267   -86.026572   -183002.72    802.88157   -182199.84    165824.42   0.78806134    0.1798514   0.26878375   0.41223217 
  240000    301.34711     302.4193    45.318306   -183006.78    806.79426   -182199.98    165747.87   0.78098519   0.17901244   0.26663941   0.40887901 
  242000    300.88743    303.24204    13.098555    -183008.7    808.98914   -182199.71    165813.57    0.7746646   0.17870606   0.26572324   0.40636463 
  244000    299.22478    300.17618   -255.04889   -183000.57    800.81004   -182199.76    166082.73    0.7730742    0.1777097   0.26495832   0.40524741 
  246000    303.17333    303.76086   -254.20747   -183010.22    810.37327   -182199.84    166597.79   0.76545443   0.17630671   0.26209516   0.40128543 
  248000     298.9393    302.74031   -249.16643   -183007.41    807.65063   -182199.76     166685.3   0.76268024   0.17516944   0.26049641    0.3994487 
  250000    300.29323    302.92004    -212.6321   -183007.95    808.13013   -182199.82    166256.15   0.76367333   0.17380951    0.2581933   0.39855871 
  252000    298.46471    300.71035   -396.92536   -183002.12    802.23511   -182199.89    165523.92   0.75821025   0.17598777   0.25533414   0.39651072 
  254000    300.27956    303.24333    -118.3454   -183008.94    808.99259   -182199.95     165090.8   0.75596762   0.18293702   0.25496604   0.39795689 
  256000    299.06181     303.6051   -176.95142   -183009.67    809.95773   -182199.71    164938.08   0.76245946   0.18379168   0.25249828   0.39958314 
  258000    298.89996    302.26784     113.3574   -183006.05    806.39017   -182199.66    164330.21   0.76728405   0.18219658   0.25444735   0.40130933 
  260000    300.40448    302.12304   -146.80692   -183005.73    806.00387   -182199.72    164422.36   0.76579016   0.18126023   0.24976919   0.39893986 
  262000    301.29072    303.49227   -57.315355   -183009.33    809.65673   -182199.67    165120.67   0.75900332   0.17960673   0.24822241   0.39561082 
  264000    300.02497    302.09905   -145.51097   -183005.53    805.93989   -182199.59    166268.76   0.75436169    0.1795772   0.24730694   0.39374861 
  266000    301.11479    303.28685   -346.46961   -183008.87     809.1087   -182199.76    166328.26   0.74951598   0.17779705   0.24585145   0.39105483 
  268000    302.82798    303.64545   -262.93898    -183009.8    810.06537   -182199.74    165542.53     0.745264   0.17901733   0.24424715   0.38950949 
  270000    301.98704    302.29265   -91.255307   -183006.21    806.45637   -182199.75    164576.12   0.73877832   0.17718492   0.24238459   0.38611595 
  272000    300.54728    303.27746   -40.430352   -183008.75    809.08364   -182199.66    164577.09   0.73295197   0.18477421   0.24082024   0.38618214 
  274000    300.43921    302.43893   -249.39462   -183006.52    806.84661   -182199.67    165215.36   0.72806054   0.18945793   0.24129083   0.38626977 
  276000    303.62094    304.28289   -176.28673   -183011.44    811.76592   -182199.68    165658.82   0.72373232    0.1876433   0.24070269    0.3840261 
  278000    297.15165    300.70821   -68.074134   -183001.81    802.22939   -182199.58    165648.02   0.71959053   0.18869597   0.24250501   0.38359717 
  280000    304.12239    304.75631     114.5249   -183012.73    813.02892    -182199.7    165082.38   0.71416028   0.18731572   0.24281648   0.38143083 
  282000    300.71203    303.04955   -134.98935   -183008.15    808.47562   -182199.68     164576.9   0.71391789   0.18683613   0.24331319   0.38135573 
  284000    300.30844    301.85478   -103.78345   -183004.96    805.28822   -182199.67    164219.69   0.70908002   0.18780475   0.24417378   0.38035285 
  286000    302.47557    304.61105   -170.19919   -183012.26    812.64139   -182199.62    164833.74   0.70427056   0.19293511   0.24413895    0.3804482 
  288000     303.1703    301.31404   -175.66356   -183003.42    803.84564   -182199.57    165003.56   0.70183562   0.19472966   0.24195242    0.3795059 
  290000    300.98522    303.03686   -307.25522   -183008.03    808.44179   -182199.59    165144.03   0.69597455   0.19413321   0.24103137   0.37704638 
  292000    300.85863    301.83206   -196.12651   -183004.94    805.22762   -182199.71    165245.25   0.69481459   0.19936392   0.24159506   0.37859119 
  294000    299.28804    301.15461    -230.7192   -183003.04    803.42031   -182199.62    165400.92   0.69177685   0.20253885   0.23975338   0.37802303 
  296000    300.27899    300.84866   -46.794476   -183002.28    802.60409   -182199.67    165616.89   0.68634406   0.20110906   0.23873806   0.37539706 
  298000    303.45827    303.63588   -81.127016   -183009.75    810.03985   -182199.71    165521.14   0.68301297   0.20003958   0.23955925   0.37420393 
  300000    303.00055    302.88742   -84.512247   -183007.78    808.04309   -182199.74    165215.22   0.68610955   0.19942562   0.24621305   0.37724941 
  302000    304.92783    303.74031   -194.03689   -183010.11    810.31843    -182199.8    165167.84   0.69451445   0.20244952   0.24419891   0.38038763 
  304000    299.86028    301.39362   -335.95759   -183003.87    804.05795   -182199.81    164948.05   0.68996219   0.20601797   0.24826563   0.38141526 
  306000    300.54188    303.04333    -5.196789   -183008.19    808.45903   -182199.73    164725.81   0.68916421   0.20450773   0.24451183   0.37939459 
  308000     300.9243    302.68301   -274.28535    -183007.2    807.49778    -182199.7    165219.98   0.68418892   0.20334478   0.24338576   0.37697315 
  310000    304.88878    303.62446   -64.478064   -183009.64    810.00939   -182199.63    165555.64   0.68562454    0.2034252   0.24256999   0.37720658 
  312000    299.75739     300.8385   -95.767826   -183002.18      802.577   -182199.61    165994.59   0.68265212   0.20288957   0.24074045   0.37542738 
  314000    304.05064    303.27156   -185.26196   -183008.75    809.06791   -182199.68    165931.12    0.6781125   0.20211937   0.24689033    0.3757074 
  316000    301.48935    304.29617   -193.90739   -183011.42    811.80135   -182199.62     165296.6   0.67678615   0.20848419   0.24806509   0.37777848 
  318000    301.28448    304.28975     163.0855   -183011.35    811.78423   -182199.57    164920.84   0.67473745   0.21190467   0.24671626   0.37778612 
  320000    302.60235    303.76322   -378.60083   -183010.07    810.37956   -182199.69    164797.87   0.67309782   0.21871665   0.24704588   0.37962012 
  322000    301.77279    304.14365   -124.41634   -183010.99    811.39448    -182199.6    164943.13   0.67393543   0.21609231   0.24762965   0.37921913 
  324000    301.79802    304.06902    2.0596098    -183010.8    811.19538    -182199.6    165333.17     0.669368   0.22128766   0.24836606   0.37967391 
  326000    298.77585    301.53606    31.461205   -183004.04    804.43793    -182199.6    165730.61   0.66470993   0.23128461   0.25047199   0.38215551 
  328000    305.83039     303.0844   -184.84763   -183008.15    808.56861   -182199.58    165621.88   0.67020949    0.2247528   0.24646706   0.38047645 
  330000    302.43221    301.44173   -131.54219   -183003.64    804.18628   -182199.46    165758.23   0.66797231   0.22277926   0.24410536   0.37828564 
  332000    305.00005     304.0574    13.908328   -183010.62    811.16436   -182199.46    165325.39   0.66397401   0.22179998   0.24754782   0.37777394 
  334000    304.32617    303.89342   -271.57939   -183010.33    810.72692   -182199.61     165006.5    0.6625525   0.22029314   0.25725763   0.38003442 
  336000    300.86862     302.6892    -50.17971   -183006.99    807.51428   -182199.48    164782.81   0.66227249   0.21874612   0.25891976   0.37997946 
  338000     304.9357    302.12446   -15.822755   -183005.52    806.00768   -182199.51    164214.82    0.6596425   0.21924876    0.2627378   0.38054302 
  340000    300.98075    302.99724   -121.17457   -183007.74    808.33608    -182199.4    164417.62   0.65576822   0.22065117   0.25902508   0.37848149 
  342000    302.70148    301.42997   -104.75611   -183003.82     804.1549   -182199.66    164499.86   0.65884707    0.2308376   0.26012071   0.38326846 
  344000    308.04879    304.63897   -160.13139   -183012.28    812.71588   -182199.56    164855.35   0.65445678   0.23200473   0.25909649   0.38185267 
  346000    302.40539    300.93413   -85.486762    -183002.4    802.83211   -182199.57    165355.56   0.65219981   0.22973605   0.25775698   0.37989762 
  348000      301.037    302.16626   -114.55756   -183005.55     806.1192   -182199.43    166041.81   0.65272081   0.22810312   0.25714367   0.37932253 
  350000    300.97686    300.69742    -107.3027    -183001.5    802.20061    -182199.3    166844.11   0.65526739   0.22788033   0.25449018   0.37921263 
  352000    302.72816     302.7129   -260.86777   -183007.08    807.57752    -182199.5     167766.3   0.65245013   0.22583814   0.25894266   0.37907698 
  354000    302.99792    303.65868   -49.076789   -183009.48    810.10067   -182199.38    167648.98   0.65116332   0.22603242   0.25465582   0.37728385 
  356000     301.1969    302.66332   -76.674455   -183006.83    807.44523   -182199.39    166898.84   0.64549791   0.22387211   0.25325893   0.37420965 
  358000    301.67805    302.47171    -237.0234   -183006.41    806.93407   -182199.47    165922.92   0.64396884   0.22278594   0.25399444   0.37358307 
  360000    301.90481    302.66073   -193.79518   -183006.98    807.43835   -182199.54    164722.41     0.640318   0.22119809   0.25316803   0.37156137 
  362000    304.69392    304.14078   -167.79669      -183011    811.38681   -182199.61    163874.19   0.63822008   0.22471219   0.25640223    0.3731115 
  364000    305.86017    304.68526   -46.269966   -183012.29    812.83938   -182199.45    164755.57   0.63615953   0.22801293   0.25784139   0.37400462 
  366000    305.82624    304.18104   -20.076698   -183010.84    811.49422   -182199.35     166447.6   0.63141632   0.22740324   0.25664967   0.37182308 
  368000    305.73389    304.87824    97.613652   -183012.85    813.35422    -182199.5     167695.1   0.63205264   0.22852975   0.25523365   0.37193868 
  370000    300.76783    300.86362    10.127662   -183002.06    802.64401   -182199.41    168545.06      0.63978   0.22897908   0.25547615   0.37474508 
  372000    304.79621    303.22205   -188.29719   -183008.19    808.93581   -182199.25    168337.71   0.64086616   0.22912787   0.25599017   0.37532807 
  374000    301.55941    301.88951    56.527012   -183004.76    805.38088   -182199.38    167655.49   0.64781805   0.22765984   0.25508455   0.37685415 
  376000    302.62321    302.50812   -149.03725   -183006.46    807.03121   -182199.43    166555.89   0.66754525   0.22856792   0.25423395   0.38344904 
  378000    305.75513     304.1977   -169.09797   -183011.01    811.53866   -182199.47     165278.9   0.66015889   0.22714144   0.25604373   0.38111469 
  380000    305.02364    303.16644   -203.74647   -183008.11    808.78748   -182199.32    164524.02   0.66033987   0.22579658   0.25458812   0.38024152 
  382000    307.57809    305.12757     -273.075   -183013.55    814.01938   -182199.53    164892.05   0.66590503   0.22572147   0.26173397   0.38445349 
  384000    302.34177    303.39542   -18.959033   -183008.79    809.39833   -182199.39    165692.94   0.66281495   0.22941137   0.26179353   0.38467328 
  386000    306.42799    305.35749   -172.81573   -183014.02    814.63274   -182199.39    165564.19   0.66196429   0.22759388   0.26046739   0.38334185 
  388000    305.26847    303.65847   -263.36779   -183009.63     810.1001   -182199.53     165045.3   0.65812252   0.22701495   0.26014454   0.38176067 
  390000    302.70491    303.21253   -207.47874   -183008.14    808.91042   -182199.23    164724.23   0.65483048   0.22557487   0.26092387   0.38044308 
  392000    304.46553    303.99431     -126.769   -183010.42    810.99605   -182199.42    164270.11   0.65245591   0.22531355   0.26047438   0.37941462 
  394000    302.29196    301.82528   -92.119595   -183004.51    805.20953    -182199.3    163526.37   0.65350144   0.22360349   0.25788237    0.3783291 
  396000    304.26562    302.21675    167.10322   -183005.52    806.25389   -182199.26     162681.6   0.64987264   0.22662463   0.25779381   0.37809703 
  398000    303.84163    304.22327    17.335721   -183010.95    811.60687   -182199.35    163421.05   0.65024773   0.22715708   0.25616457   0.37785646 
  400000    303.04571    303.20599    44.061892   -183008.19    808.89299    -182199.3    164671.06   0.65135337   0.22564365   0.25825529   0.37841744 
  402000    304.37359    302.46811   -248.87228   -183006.31    806.92445   -182199.39    165487.91   0.64978737   0.22481387   0.25441603   0.37633909 
  404000    301.22081    301.97324   -123.89694   -183004.89    805.60425   -182199.28    165820.37   0.65813238   0.22370613   0.25314994   0.37832948 
  406000    300.99114    302.12729   -90.535743    -183005.4    806.01523   -182199.39    165915.19   0.65634792   0.22469925   0.25286218   0.37796979 
  408000    300.78002    302.43907   -259.54713   -183006.09      806.847   -182199.24    165762.78    0.6557769   0.22335708   0.25219375   0.37710924 
  410000    299.40964     300.9584   -86.375471   -183002.15    802.89686   -182199.25    165179.04   0.65562208   0.22309496   0.25085302   0.37652335 
  412000    299.59641    301.80332   -215.98637   -183004.47    805.15094   -182199.32    164133.83   0.65926353   0.22204767    0.2498595    0.3770569 
  414000     303.5306    303.95791   -91.241767    -183010.2    810.89894    -182199.3    163235.66   0.66760495   0.21987016   0.24973415   0.37906975 
  416000    299.12534     301.4298    20.968992   -183003.44    804.15445   -182199.29    162709.56   0.66629888   0.21805983   0.25062833   0.37832901 
  418000    304.82464    303.36465    81.362596    -183008.9    809.31625   -182199.58    163512.98   0.66366432   0.21769809   0.24956369   0.37697537 
  420000    299.16702    302.74462    0.7651846   -183006.98    807.66213   -182199.32    165709.85   0.66471669   0.21928944   0.24940865   0.37780493 
  422000    298.42672    302.08519   -75.834622   -183005.15    805.90292   -182199.25    166995.48   0.66261438   0.21872817    0.2495594   0.37696732 
  424000     303.0356    303.26597   -225.52808   -183008.45      809.053    -182199.4    166946.46   0.66658877   0.21821341   0.25620189   0.38033469 
  426000    300.56255    303.59851   -305.84997    -183009.2    809.94015   -182199.26    165635.17   0.66191587   0.22461055     0.263019   0.38318181 
  428000    302.30453    303.47014   -164.84195   -183009.05    809.59767   -182199.45    164163.25   0.65856232   0.22779605   0.26201196   0.38279011 
  430000    302.79793    302.51907    39.956726   -183006.48    807.06043   -182199.42    163427.92   0.65779326   0.22806652   0.26261374   0.38282451 
  432000    302.84723    303.12513   -135.97723   -183008.17    808.67725   -182199.49    163586.76   0.65841926   0.22906724   0.26170703   0.38306451 
  434000    299.92465    301.36981    -232.9729   -183003.49    803.99441    -182199.5     164577.1   0.65527543   0.22900303   0.26071109   0.38166319 
  436000    300.97343     303.2647   -198.62628   -183008.41    809.04961   -182199.36     165136.4   0.65922415   0.22770095   0.26140249   0.38277586 
  438000    298.34366    302.19868   -313.66089    -183005.6    806.20567   -182199.39    165555.95   0.65897949   0.22689485   0.25838668   0.38142034 
  440000    301.71067    302.73219   -66.854463   -183006.92    807.62898   -182199.29    166494.52   0.65638294   0.22485742   0.25757149   0.37960395 
  442000    300.83186    302.87279   -103.06307   -183007.38    808.00406   -182199.38    166957.27    0.6569351   0.22447774   0.25623698    0.3792166 
  444000    301.54077    302.39619    7.4474811   -183006.06     806.7326   -182199.32    166221.61   0.65714538   0.22332264   0.25444289   0.37830364 
  446000    297.21764    299.93789    57.974408   -182999.49    800.17434   -182199.31    165131.16    0.6638934   0.22521626   0.25330755   0.38080574 
  448000    304.58064    304.73866   -189.53243   -183012.52    812.98183   -182199.54    163875.24   0.66630883   0.22466941   0.25153552   0.38083792 
  450000     301.0825    302.40986   -74.519733   -183006.12    806.76906   -182199.35    164316.03   0.66963716   0.22099815   0.25139339   0.38067623 
  452000    300.96334    303.95987   -437.55243   -183010.25    810.90418   -182199.35    165552.71   0.67033514   0.22144799   0.25286716   0.38155009 
  454000    303.78343    302.99366   -269.24423   -183007.72    808.32654   -182199.39    166975.17   0.67815232   0.22097501   0.25341272   0.38418001 
  456000    300.18403    299.40011   -32.670458    -182997.8    798.73964   -182199.06    167929.14   0.68345424   0.22070636   0.25273752   0.38563271 
  458000    302.07673    303.99163   -17.816692   -183010.24    810.98891   -182199.25    168073.52   0.68992073   0.21971376   0.25290606   0.38751352 
  460000    300.43577    301.78971   -177.84947   -183004.24    805.11462   -182199.13       167683    0.6896834   0.21919285   0.25279128   0.38722251 
  462000    300.64411    301.76879   -179.66087   -183004.46    805.05883    -182199.4    167015.76   0.68697714   0.21801721    0.2529652   0.38598651 
  464000    303.23755    303.70083   -237.79672   -183009.52     810.2131   -182199.31    166590.86    0.6862108   0.21822471   0.25334626   0.38592726 
  466000    305.50191    306.94398    78.066652   -183018.14    818.86518   -182199.27     165995.3   0.68816243   0.21947498   0.25180722   0.38648154 
  468000    299.84629    301.60893    1.4896269    -183003.9    804.63235   -182199.27    165971.79   0.68419523   0.22078987   0.25001408   0.38499972 
  470000     300.4637    302.23831   -85.023637   -183005.58    806.31141   -182199.27    166363.84   0.68274118    0.2202702   0.24925371   0.38408836 
  472000    301.90942    302.99466   -84.867487   -183007.52    808.32921   -182199.19     166603.3   0.68312515   0.21989409   0.24991846   0.38431257 
  474000    298.01032    300.43606    -319.6016    -183000.6    801.50335   -182199.09    166354.75   0.68655289   0.21895009   0.24962146   0.38504148 
  476000    306.05134    305.20618   -40.862787   -183013.49    814.22908   -182199.26    165396.02   0.69021632   0.21905748   0.24906721   0.38611367 
  478000     302.2028    302.94974   -11.618203   -183007.49    808.20935   -182199.28    164919.41   0.68778008   0.21775293   0.24803857   0.38452386 
  480000    307.36995    306.41572   -89.955335    -183016.8     817.4559   -182199.34    164877.64   0.69542548   0.21477599   0.24815279   0.38611809 
  482000    304.49187    304.64921   -196.87379   -183012.01    812.74321   -182199.26    164417.49   0.69067636   0.21489051   0.24681443    0.3841271 
  484000    304.25367     302.3496    54.554698   -183005.76    806.60831   -182199.15     164637.8   0.68957349   0.21431913   0.24634235   0.38341165 
  486000    301.83173    303.07915   -31.684589   -183007.77    808.55458   -182199.22    165125.87   0.68784445   0.21343355   0.24588803   0.38238868 
  488000    301.45956    303.85807    16.799733   -183009.85    810.63259   -182199.22    165505.78   0.69223678   0.21352851   0.24537908   0.38371479 
  490000    302.59311    305.62252   -237.39792   -183014.45    815.33979   -182199.11    166219.53   0.69535999   0.21398989   0.24515556   0.38483514 
  492000    301.03068    303.04717    44.731127   -183007.49    808.46929   -182199.02    166915.06   0.69718269    0.2122732   0.24439316   0.38461635 
  494000    303.53935    302.62603   -347.18678   -183006.35    807.34578   -182199.01    166878.09   0.70036317   0.21159189   0.24760158   0.38651888 
  496000    300.87535    302.48771    10.268293   -183005.98    806.97675      -182199    166191.65    0.7059124   0.21336134   0.24968356   0.38965243 
  498000     303.0507     303.6815   -160.92252    -183009.3    810.16154   -182199.14    165551.18   0.70414768   0.21202605    0.2509446   0.38903944 
  500000    303.67063    304.76956   -243.83391   -183012.14    813.06428   -182199.07    165028.43   0.70383186    0.2144293   0.25022333   0.38949483 
  502000    303.45159    303.71583    9.3817963   -183009.25    810.25312   -182198.99    165291.83   0.70308313   0.21363482   0.24894192   0.38855329 
  504000    300.90153    303.13377    -429.8446   -183007.72     808.7003   -182199.02    166075.88   0.70021032   0.21215054   0.24792709   0.38676265 
  506000    303.31984    302.29635   -106.81579    -183005.3    806.46625   -182198.84     165916.2   0.69927518   0.21117053   0.24720992   0.38588521 
  508000    303.50093    303.73453   -228.63991   -183009.28    810.30302   -182198.97     166229.1   0.70468371   0.21104643   0.24635292   0.38736102 
  510000      302.037    301.64661   -162.72389   -183003.68    804.73286   -182198.95    166107.02   0.71355263   0.21139111   0.24603111   0.39032495 
  512000    301.07441     302.6869   -291.49846    -183006.3    807.50814   -182198.79    166659.59   0.73310269   0.21048339   0.24619919   0.39659509 
  514000    301.71725    301.38827   -264.23011   -183002.81    804.04368   -182198.76    166992.92    0.7317677   0.21161349   0.24809464   0.39715861 
  516000    303.50525    302.10654   -241.28573   -183004.89    805.95987   -182198.93    166157.97   0.73017297    0.2128343   0.24793853   0.39698193 
  518000    302.94935    302.45758   -65.008774   -183005.77    806.89637   -182198.87    165746.41   0.72850384   0.21350767   0.24737135   0.39646095 
  520000     304.7561    304.71186    -117.5192   -183011.85    812.91035   -182198.94    165768.01   0.73069896   0.21281365   0.24645686   0.39665649 
  522000    303.43007    302.18531   -172.54596   -183004.99    806.17002   -182198.82    165621.72   0.72923454    0.2117884   0.24754631   0.39618975 
  524000    305.35126    304.08417   -8.8458265   -183010.27    811.23579   -182199.03    165554.54   0.72956852   0.21112567   0.24764797   0.39611406 
  526000    302.34923    302.63601   -285.60503   -183006.27    807.37239    -182198.9    165761.72   0.72860822   0.21256935   0.24890727   0.39669495 
  528000    304.02382    304.77303   -66.961397   -183011.95    813.07352   -182198.87     165633.2   0.72660733    0.2126159   0.24776664   0.39566329 
  530000    304.39736    303.13891   -336.03208   -183007.53    808.71401   -182198.81    165500.31   0.72419474   0.21123286   0.25114469    0.3955241 
  532000    301.46438    302.72181   -74.274145    -183006.4    807.60128    -182198.8    165802.26   0.72388806    0.2158795   0.24993989   0.39656915 
  534000     304.5266    304.10982   -101.78972   -183010.08    811.30421   -182198.78    165499.28   0.72417256   0.21638089   0.24864438   0.39639928 
  536000    304.82923    303.99898   -113.26964   -183009.82    811.00853   -182198.81    164540.42   0.72008681   0.21834583   0.24836469   0.39559911 
  538000    303.85679    305.75223    60.547228    -183014.6    815.68583   -182198.91    164137.59   0.71672792    0.2170409    0.2472685   0.39367911 
  540000    303.48175     303.8492    38.446514   -183009.53    810.60892   -182198.93    164454.23   0.71369827   0.21623405    0.2477715   0.39256794 
  542000    305.73265    305.13181     94.11499   -183012.97    814.03068   -182198.94    165256.98   0.71358515   0.21572146   0.24901785   0.39277482 
  544000    305.76363    304.27783    82.129886    -183010.5    811.75243   -182198.74    165839.52   0.71984381   0.21730657   0.24780222    0.3949842 
  546000    304.78535    303.73082    -83.93073   -183008.92    810.29313   -182198.63     166020.3   0.72143808   0.21634907    0.2474373   0.39507482 
  548000    302.53389    303.45222   -183.18823   -183008.09    809.54987   -182198.54    165486.44   0.71868754   0.21529359   0.24705447   0.39367853 
  550000    302.47911    301.05699    20.093533   -183001.89    803.15988   -182198.73     165051.7   0.71685325   0.21641447   0.24853826   0.39393533 
  552000    301.79151      302.278   -280.66185   -183005.08    806.41729   -182198.66    164464.98   0.71521124   0.21579019   0.24889996   0.39330046 
  554000    300.95017    301.02889   -203.58583   -183001.76    803.08491   -182198.67    163938.16   0.72150345   0.21928417    0.2481564   0.39631467 
  556000    305.80401    305.08307   -45.733982   -183012.61    813.90065    -182198.7    163313.66   0.72185928   0.22692293   0.24726403   0.39868208 
  558000    307.15618    305.63586   -21.219036   -183013.94    815.37539   -182198.56    163012.77   0.72410936   0.22550395   0.24633143   0.39864825 
  560000    303.69601    304.72547    85.794332   -183011.71    812.94664   -182198.76    163750.49   0.72256178   0.22526652   0.24568697   0.39783842 
  562000    302.01162    302.63618   -53.789395   -183006.05    807.37283   -182198.68    164382.06   0.71998764   0.22401312   0.24640382   0.39680153 
  564000    302.65892     303.9393   -254.10736   -183009.62     810.8493   -182198.77    165222.34   0.71766808   0.22335852   0.24695624   0.39599428 
  566000    304.49225    303.98141   -253.03003   -183009.57    810.96166    -182198.6    166248.01    0.7157678   0.22329955    0.2469631   0.39534348 
  568000     302.2994    303.32351   -156.47095   -183007.75    809.20651   -182198.55    166965.05   0.71430375   0.22251727   0.25427588    0.3970323 
  570000    304.66214    304.27292   -222.82807   -183010.38    811.73934   -182198.64    167098.48   0.71057778    0.2225414   0.25575495   0.39629137 
  572000    301.95763    303.70401   -24.645918   -183008.93     810.2216   -182198.71    167485.99   0.70799311   0.22241607   0.25520752   0.39520557 
  574000    303.68272    304.09548    -217.5747   -183009.95    811.26596   -182198.68    167203.31   0.71075277   0.22174127   0.25529816   0.39593073 
  576000    301.46669    303.00812    150.62918   -183006.96    808.36511    -182198.6    166976.72   0.71576954   0.22184215   0.25452001   0.39737724 
  578000    305.09957    305.53943   -149.97547   -183013.68    815.11814   -182198.56    166559.22   0.72649902   0.22205747   0.25574335   0.40143328 
  580000    304.09907    305.00315   -368.04893   -183012.39    813.68745   -182198.71    165587.59   0.72700223   0.22081863   0.25449981   0.40077356 
  582000    299.96797    302.91209   -42.579823   -183006.63     808.1089   -182198.53    164379.42   0.73046948   0.22010301   0.25445315   0.40167521 
  584000     301.4423    303.55416   -210.39913   -183008.48    809.82183   -182198.66    163416.13   0.73468548   0.22010134   0.25919245   0.40465976 
  586000    301.46373    304.72142   -391.91609   -183011.59    812.93585   -182198.66    162438.72   0.73381366    0.2201662   0.25925123   0.40441036 
  588000    300.50866    303.49424   -220.84158   -183008.26    809.66197    -182198.6    162596.85   0.73158792    0.2195585   0.25995813   0.40370152 
  590000    303.75315     304.5477   -122.15259      -183011     812.4724   -182198.53    163506.92   0.73159684   0.21969407   0.26065846   0.40398313 
  592000    301.87546    304.54992   -80.002312   -183010.98    812.47831    -182198.5    163934.66   0.73319973   0.22094832   0.25972503   0.40462436 
  594000    301.87687    301.54868   -68.887605   -183003.02    804.47161   -182198.55    163999.51   0.73188738   0.22027899   0.25868759   0.40361799 
  596000    303.70293    304.77751   -291.62715   -183011.69    813.08549   -182198.61    164764.32   0.73923703   0.21958224   0.26011205   0.40631044 
  598000    301.54832    303.39931   -137.69695      -183008    809.40873   -182198.59    165818.77   0.73696941   0.21888572   0.25817815   0.40467776 
  600000    304.39119     305.3134    -131.0456   -183013.12    814.51513    -182198.6    166844.95   0.73519056    0.2179938   0.25740969   0.40353135 
  602000    301.51227    303.70901   -250.55676   -183008.82    810.23493   -182198.58    167376.12   0.73391465   0.21775654   0.25958144   0.40375088 
  604000    300.98613    302.54605   -138.14085   -183005.78    807.13239   -182198.65    166919.06   0.73176095   0.22317073   0.25743881    0.4041235 
  606000    302.37317    303.58294   -43.084157   -183008.59    809.89861   -182198.69    165700.03   0.72947029   0.22102161    0.2573431   0.40261167 
  608000    300.51542    304.14441    70.130955   -183010.03    811.39649   -182198.63    164651.45   0.72993563   0.22610728    0.2572296   0.40442417 
  610000    304.18779    305.30037   -255.44326   -183013.14    814.48036   -182198.66    163904.61   0.72637103   0.22383794   0.25617435   0.40212778 
  612000    300.22941    302.10031   -147.32822   -183004.63    805.94324   -182198.69    164352.99   0.72402598   0.22313948   0.25596164   0.40104237 
  614000     303.5031    302.65115   -345.03457   -183006.05    807.41278   -182198.64    164318.62    0.7216073   0.22276706   0.25559143    0.3999886 
  616000     306.1427    305.52351    -126.2591   -183013.84    815.07565   -182198.76    164509.81   0.71946402   0.22191981   0.25457212   0.39865198 
  618000    304.07487    303.11116   -402.14177   -183007.27       808.64   -182198.63    164667.85   0.71921293    0.2220047   0.25385404   0.39835722 
  620000    304.63927    305.16653    -83.59454   -183012.72     814.1233   -182198.59    165240.64   0.71683823   0.22141526   0.25507406   0.39777585 
  622000    301.21491     303.1569   -226.05833   -183007.28    808.76203   -182198.52    165651.93   0.71833797   0.22045196   0.25720525   0.39866506 
  624000    302.18607    304.15063   -29.045307   -183009.97     811.4131   -182198.56    165679.85   0.72301851   0.22160266    0.2612841   0.40196842 
  626000    306.30992    306.80587    46.457649   -183017.16    818.49674   -182198.67    165166.27   0.72183777   0.22047368   0.26319381   0.40183508 
  628000    301.39008    302.54242   -58.688253   -183005.63    807.12271   -182198.51    164951.96   0.72616718   0.21965741   0.26337412   0.40306623 
  630000    302.36694    303.72581   -100.67747   -183008.76    810.27974   -182198.48    164707.34   0.72524145   0.22398326   0.26265235   0.40395902 
  632000    304.31482    305.82944   -79.928897   -183014.44    815.89181   -182198.55     164239.8   0.72316085   0.22213274   0.26206306   0.40245222 
  634000    304.13066    304.24403   -351.96077    -183010.2    811.66228   -182198.54    164134.82   0.72174978   0.22192329   0.26138469   0.40168592 
  636000    303.62099    303.26532   -39.241701   -183007.59    809.05125   -182198.53     164438.5   0.71964159   0.22206247   0.25953346   0.40041251 
  638000    302.94499    302.35124   -146.40363   -183005.25    806.61268   -182198.63    164477.59   0.72055591   0.22087276   0.25855343   0.39999403 
  640000    306.10062    303.52414   -119.89041   -183008.12    809.74173   -182198.38    165053.83    0.7237594   0.22045427   0.25875068   0.40098812 
  642000    304.93306    303.84742   -179.14148   -183008.96    810.60419   -182198.36    165931.56   0.72577519    0.2195894   0.25744291   0.40093583 
  644000    303.12206    303.90891    8.6571149   -183009.21    810.76823   -182198.45    166296.38   0.72503281   0.21917509   0.25629368   0.40016719 
  646000     305.7377    305.55171   -38.077352   -183013.66     815.1509   -182198.51    166078.16   0.72228534   0.21873153   0.25590125   0.39897271 
  648000    302.57859    303.65187   -164.40934    -183008.6     810.0825   -182198.52    165631.36   0.72170508    0.2176691   0.25603803   0.39847074 
  650000    305.31098    304.04317   -207.46924   -183009.66    811.12641   -182198.53    164499.44   0.71896226   0.21664866   0.25524368   0.39695153 
  652000    304.38937    304.58162    46.428689   -183011.06    812.56288    -182198.5    163662.29   0.71641799    0.2158266   0.25442662   0.39555707 
  654000    302.48493    303.40827   -27.285162   -183007.84    809.43264   -182198.41    163346.06   0.71451684   0.21613243   0.25385221   0.39483383 
  656000    304.70845    302.52534   -76.905029   -183005.59    807.07715   -182198.51    164417.88   0.71251352   0.21699103    0.2536514   0.39438532 
  658000    305.10638    305.59708    120.53759   -183013.85    815.27194   -182198.58    165104.91   0.71040056   0.21685947   0.25254372   0.39326791 
  660000    301.28972    301.60665   -287.12833   -183003.17    804.62626   -182198.54    164978.85   0.70863241   0.21624171    0.2524263   0.39243347 
  662000    306.37518    306.22136    89.466703    -183015.5     816.9374   -182198.56     163885.7    0.7064216    0.2156525   0.25203895   0.39137102 
  664000    302.68018    303.03486    31.417835   -183006.86    808.43644   -182198.43    162729.43   0.70545807   0.21465798   0.25136151   0.39049252 
  666000    304.85125    303.45703   -258.62349   -183008.04     809.5627   -182198.48    162254.67   0.70506893   0.21482664   0.25139886   0.39043148 
  668000    306.57847    304.73954   -39.491049   -183011.43    812.98418   -182198.45    163086.07   0.70322152   0.21674702   0.25057878   0.39018244 
  670000    303.76351    303.20683   -85.246578   -183007.23    808.89522   -182198.34    164620.04   0.70174045   0.21639079   0.25002749   0.38938624 
  672000    303.52799     303.9105   -236.75053   -183008.98    810.77248   -182198.21    165784.31   0.70092325   0.21487868   0.24926081   0.38835424 
  674000     301.2952    301.72585   -267.52204   -183003.11    804.94426   -182198.17     166505.2   0.69994175   0.21451937   0.25040165   0.38828759 
  676000    303.07068    303.45951   -118.75771   -183007.89    809.56932   -182198.32    166077.05   0.70380598   0.21373252   0.25024578   0.38926143 
  678000    303.38692    303.63706   -63.726821   -183008.35    810.04299   -182198.31    165433.98   0.70295626   0.21319325   0.24981064   0.38865338 
  680000    302.52462    302.20706     91.22841    -183004.6    806.22804   -182198.37    165161.88   0.70085813   0.21261377   0.24921812   0.38756334 
  682000    299.95505    302.53979   -83.670188    -183005.6     807.1157   -182198.48    164884.28   0.69950734   0.21323758   0.24964008   0.38746167 
  684000    302.51642    302.82912   -268.97749   -183006.31    807.88756   -182198.42    164813.14   0.69763247   0.21324815   0.24858085   0.38648715 
  686000    302.75275    304.90552   -18.739936   -183011.74    813.42699   -182198.31    164803.57   0.69554207   0.21337549   0.24850307   0.38580687 
  688000    303.16157    304.63217   -255.65671   -183010.97    812.69774   -182198.27    165792.73   0.69440222   0.21227138   0.24863285   0.38510215 
  690000      302.736    302.95123   -200.82238    -183006.4    808.21334   -182198.19    166051.62   0.69579138   0.21391085   0.24779668   0.38583297 
  692000    302.43468    302.52086   -12.268668   -183005.29    807.06518   -182198.22    166276.71   0.69361109   0.21383367   0.24785464    0.3850998 
  694000    300.00588    301.72373   -267.96554   -183003.12    804.93861   -182198.18    166377.65   0.69812813   0.21352598   0.24834579   0.38666663 
  696000    301.02593    301.97416   -84.254379    -183003.8    805.60672   -182198.19    165738.16   0.69603205   0.21341171   0.24884059   0.38609478 
  698000     303.5921    304.64423   -227.84124   -183011.06    812.72993   -182198.33     164861.4   0.69829832   0.21280891   0.24922271   0.38677665 
  700000    301.79211    302.82599   -147.49802   -183006.15    807.87921   -182198.27    164711.21   0.70142784    0.2120919   0.25115903   0.38822625 
  702000     302.3712    302.99051    -54.51809   -183006.44    808.31812   -182198.12    164928.06   0.70365053   0.21403023   0.24963403   0.38910493 
  704000    302.11667    303.91336    -221.0389   -183008.99     810.7801   -182198.21    165120.88   0.70672853   0.21310761   0.24936508   0.38973374 
  706000     303.7259    304.06064   -85.974238   -183009.29      811.173   -182198.11    165655.28   0.70401585   0.21284621   0.25008147   0.38898118 
  708000    302.19339    302.45471   -164.80156   -183004.88    806.88873   -182197.99    166339.36   0.70260547   0.21190996   0.24933207   0.38794917 
  710000     302.8246    303.60886    24.083116   -183007.92    809.96776   -182197.96     167161.4   0.70089783   0.21322477    0.2490225   0.38771503 
  712000    302.53972    304.79037     50.32897   -183011.29     813.1198   -182198.17    166631.48   0.69886241   0.21484548   0.25092582   0.38821124 
  714000    301.94279    303.16912   -69.050626   -183007.04    808.79461   -182198.25    165328.76    0.6969261    0.2154854   0.25143284   0.38794811 
  716000    302.78692    304.23527   -76.415694   -183009.76    811.63889   -182198.13    163789.81   0.69485103   0.21483535   0.25096376   0.38688338 
  718000    303.46713    303.33125   -185.73331   -183007.22    809.22715   -182197.99    163909.58   0.69290877   0.21375547   0.25031791   0.38566072 
  720000    304.77179    303.12777   -317.70481   -183006.87    808.68431   -182198.18     164217.9   0.69567932   0.21664318   0.24988972   0.38740407 
  722000    302.07598    302.30054   -36.663082    -183004.6    806.47742   -182198.12    164550.25   0.70043246   0.21613816   0.24941395   0.38866153 
  724000    304.45667    303.93212   -26.988956   -183009.11    810.83014   -182198.28    165185.09   0.70145595   0.21553064   0.24833252    0.3884397 
  726000    303.33074    304.63059   -15.121301   -183010.82    812.69352   -182198.13    165804.33   0.70061365   0.21434767   0.24876199   0.38790777 
  728000    301.46017    303.57627   -170.19418   -183008.04    809.88081   -182198.16    166697.75   0.70577253   0.21417144    0.2486314   0.38952512 
  730000    300.59849     302.2423   -224.67369   -183004.34    806.32205   -182198.01    167416.17   0.70985947    0.2132834   0.25104993    0.3913976 
  732000    301.94209    302.98066    -193.2269   -183006.34    808.29184   -182198.05    167410.36    0.7082556   0.21253864   0.25183946    0.3908779 
  734000     302.1002    305.25581   -190.65106   -183012.49     814.3615   -182198.13    166898.06   0.70797826   0.21201954   0.25074053   0.39024611 
  736000    302.57455    304.10567   -129.90202   -183009.48    811.29316   -182198.18    165593.89   0.70901914   0.21114805   0.25098496   0.39038405 
  738000    302.58559    304.06494    57.565656   -183009.39     811.1845    -182198.2     164619.6   0.70757552   0.21298624   0.25153709   0.39069962 
  740000    300.69771    302.17658   -349.99642   -183004.19    806.14672   -182198.05    163935.37   0.70567682   0.21285075   0.25093855   0.38982204 
  742000    302.73448    305.57321   -64.225064   -183013.22    815.20825   -182198.01    163169.05   0.70448906   0.21238168   0.25060764   0.38915946 
  744000    303.36016    303.41562   -295.19861   -183007.52    809.45224   -182198.07    163679.76   0.70536288   0.21543898   0.25042423    0.3904087 
  746000    299.93929    305.23066    3.8158763   -183012.39     814.2944   -182198.09    164135.99   0.70474062   0.21541563   0.25020001   0.39011875 
  748000    300.52541    303.81659   -91.297135   -183008.61    810.52195   -182198.09    164103.97   0.70360807   0.21470194   0.24943794   0.38924932 
  750000    303.45056     304.2456    -228.3357   -183009.92    811.66646   -182198.25    163502.06   0.70217956   0.21353091   0.24855458   0.38808835 
  752000    302.68098    305.48957   -110.97086   -183013.16    814.98511   -182198.18    163151.98   0.69960085   0.21298637    0.2483804   0.38698921 
  754000    301.25568    303.69649    212.25566   -183008.39    810.20153   -182198.18    163474.94   0.69803557   0.21233456   0.24770385   0.38602466 
  756000    299.75839    303.97585   -173.58199   -183009.19    810.94682   -182198.24    163880.55   0.69675317   0.21212898   0.24733982   0.38540732 
  758000    302.17068     305.4243   -2.1024952      -183013    814.81098   -182198.18     164649.4   0.69439752   0.21255427   0.24678916   0.38458032 
  760000    299.13192    304.00435   -148.57868   -183009.25    811.02285   -182198.23    164690.52   0.69264353   0.21238186   0.24591489   0.38364676 
  762000    300.37286    304.36616   -75.190607   -183010.29    811.98809    -182198.3    164520.87   0.69078884   0.21167814   0.24613852    0.3828685 
  764000    302.83681    307.36902    -107.3374   -183018.24    819.99912   -182198.24    164367.89   0.68969663   0.21150239    0.2460774   0.38242547 
  766000    301.44967    303.43859   -224.76147   -183007.84    809.51352   -182198.33    164090.04   0.69088679   0.21163884   0.24684716   0.38312426 
  768000    299.73426    304.57217   -70.645445   -183010.74    812.53769   -182198.21    163547.75   0.68833798   0.21088773   0.24584287   0.38168953 
  770000    304.24188    303.77444   -165.07581   -183008.59     810.4095   -182198.18    163171.89   0.68927021   0.21024271   0.24542303   0.38164531 
  772000    304.86874     304.3835   -197.94909   -183010.05    812.03435   -182198.01    163492.61   0.69037023   0.20899799   0.24487264   0.38141362 
  774000    304.61631    304.13844   -107.77286   -183009.47    811.38057   -182198.09     163742.8   0.69707796    0.2088334    0.2450449   0.38365208 
  776000    306.08454    305.45225    119.82099   -183012.87    814.88556   -182197.98    163671.92   0.70454363   0.20829626   0.24440357   0.38574782 
  778000    304.38944    304.62411   -72.133019    -183010.7    812.67625   -182198.02    164075.44   0.70736494   0.20798351   0.24474762   0.38669869 
  780000    301.59604    302.26141   -115.32703   -183004.37    806.37302   -182197.99    164296.95   0.70692267    0.2071028   0.24490657   0.38631068 
  782000     306.6081    305.75936   -213.12078   -183013.84    815.70486   -182198.13    165140.16   0.70846503   0.20703234    0.2443559   0.38661776 
  784000    304.35774    304.58516   -69.826283   -183010.51    812.57232   -182197.93    166258.19   0.70982617   0.20614557   0.24487025   0.38694733 
  786000     303.5162     303.4858   -148.69307   -183007.72    809.63945   -182198.09    166281.46   0.70960923    0.2057709   0.24382625   0.38640213 
  788000    304.36212    304.26891   -73.723182   -183009.76    811.72865   -182198.03    165922.69   0.71296675   0.20521737    0.2432114   0.38713184 
  790000    304.77548    305.30503   -202.33345   -183012.54    814.49281   -182198.04    165253.06   0.71665542   0.20467015   0.24320074   0.38817544 
  792000    306.20097    306.19783   -202.50279   -183015.03    816.87461   -182198.16    164709.47   0.71810315   0.20623906   0.24390891   0.38941704 
  794000     301.7053    303.64355   -105.81102   -183008.19    810.06029   -182198.13    164673.19   0.71795331    0.2055182   0.24550787    0.3896598 
  796000    308.17544    306.42795     5.723339   -183015.61    817.48854   -182198.13    164407.67   0.71916682   0.20671194   0.24480287   0.39022721 
  798000    299.19519    301.71123   -52.467689   -183002.96    804.90526   -182198.06    164889.17   0.71653267   0.20753878   0.24401489   0.38936211 
  800000    302.52839    303.94164   -85.680513   -183008.92    810.85556   -182198.07    165035.22   0.71825376   0.20740702   0.24385568   0.38983882 
  802000    300.15613    302.47104    35.647872   -183004.89    806.93228   -182197.95    165184.85   0.72150455    0.2080354   0.24369751   0.39107915 
  804000    306.94791    305.93176   -180.47309   -183014.27     816.1648    -182198.1    165536.35   0.72736475   0.20766792   0.24577189   0.39360152 
  806000    301.26298    303.26755   -10.658647   -183007.06     809.0572      -182198    165067.93   0.73038824   0.20681509   0.24507642   0.39409325 
  808000    304.97507    304.97518   -34.885573   -183011.69    813.61281   -182198.08    164331.37   0.72828798   0.20677545   0.24456053   0.39320799 
  810000    306.15559    303.65603   -47.178879   -183008.17     810.0936   -182198.07    164864.75   0.73012392   0.20817101   0.24378213   0.39402569 
  812000    305.24215    304.12108   -107.42389    -183009.3    811.33425   -182197.96    165901.07   0.73222945   0.20758719   0.24362232   0.39447965 
  814000    303.15032    302.81604   -227.06967   -183005.87    807.85266   -182198.02    166682.78   0.73194169   0.20757145    0.2439723   0.39449515 
  816000    303.78189    305.86809   -179.93133   -183013.95    815.99493   -182197.95    166488.66   0.73248004   0.20840996   0.24398471   0.39495824 
  818000    303.46795    303.79356   -266.67702   -183008.37     810.4605   -182197.91    166331.48   0.73326484   0.20810308   0.24354516   0.39497102 
  820000    304.27394    304.24745   -166.96611   -183009.63     811.6714   -182197.96    166768.66   0.73254286   0.20869497   0.24305919   0.39476567 
  822000     303.8311    304.44981   -131.76087   -183010.15    812.21125   -182197.94     166887.6   0.73139965   0.20785767   0.24352044   0.39425925 
  824000    301.43989    302.02155    128.65681   -183003.71    805.73312   -182197.98    166265.71   0.73101177   0.20767804   0.24308666   0.39392549 
  826000    300.37254    302.77713    10.666278   -183005.57    807.74887   -182197.82    164939.87   0.73064781   0.20743485   0.24207516   0.39338594 
  828000    305.21978    305.89719    74.366382   -183013.99    816.07255   -182197.92    163500.89   0.73133103   0.20688504   0.24199984    0.3934053 
  830000    306.16624    305.66833    35.069206   -183013.24    815.46202   -182197.78    162554.44   0.72904914   0.20637088   0.24161096   0.39234366 
  832000    304.01905    305.65964   -19.755171   -183013.21    815.43884   -182197.77    162827.86   0.73230572   0.20592895   0.24222001   0.39348489 
  834000     306.0535    305.01233   -188.45607   -183011.64    813.71195   -182197.93    163532.65   0.73413708   0.20565241   0.24132284   0.39370411 
  836000    304.14592    304.53993    -11.72075   -183010.31    812.45167   -182197.86    164158.44    0.7365272   0.20576392   0.24117137    0.3944875 
  838000    303.77705    304.62522   -93.715525   -183010.48    812.67921    -182197.8     164895.1   0.73797627   0.20500406   0.24047601   0.39448545 
  840000     306.9856    305.74055   -160.17278   -183013.52    815.65468   -182197.86    165170.31    0.7368943   0.20490634   0.23984057    0.3938804 
  842000    305.42171    304.91208   -5.3465239   -183011.16     813.4445   -182197.71    165767.96   0.73594481   0.20461096   0.24018769   0.39358115 
  844000    304.42189    305.22574   -237.62465   -183011.94    814.28127   -182197.66    166293.26    0.7385964   0.20656397   0.23959394   0.39491811 
  846000     301.1515    302.09139   -215.23564   -183003.62    805.91946    -182197.7    166130.99   0.75372738   0.20585853   0.23911301   0.39956631 
  848000    305.41763    304.64195   -14.686072   -183010.47    812.72383   -182197.74    166251.32   0.75504493   0.20522809   0.23944079    0.3999046 
  850000    304.58221    304.68272    31.487101   -183010.49    812.83261   -182197.66    166789.85   0.75519994   0.20551204   0.23937509   0.40002902 
  852000     306.5419     304.8431   -96.828466   -183010.93    813.26047   -182197.67    166740.51   0.75426723   0.20699996   0.23907187   0.40011302 
  854000    302.61124    303.64904    73.135055   -183007.73    810.07495   -182197.65    166676.75   0.75484454   0.20705098   0.23827921   0.40005824 
  856000    302.99778    303.32461   -31.104618   -183006.74    809.20943   -182197.53    166718.58   0.75491545   0.20749018   0.23798016    0.4001286 
  858000    300.79012    301.82285   -59.111987   -183002.87    805.20303   -182197.67    166838.47   0.76071449   0.20729498   0.23768192   0.40189713 
  860000    302.22458    304.18293   -204.82804   -183009.11    811.49926   -182197.61    167062.56   0.75918988   0.20866859   0.23782705   0.40189517 
  862000    300.22726    303.04617    30.998423   -183006.12    808.46661   -182197.65    166686.95   0.75737663   0.20816437   0.23883753   0.40145951 
  864000    302.80135    306.24908    98.564951   -183014.77    817.01134   -182197.75    165866.68   0.75663227    0.2080693   0.24027542     0.401659 
  866000    303.14324    304.67115   -205.92808   -183010.48    812.80174   -182197.67    165378.75   0.75613119   0.20764569   0.24017679   0.40131789 
  868000    300.10703    303.60247    232.33422    -183007.6    809.95072   -182197.65    164456.22    0.7553776   0.20766455   0.23954174    0.4008613 
  870000    307.48773    305.77455   -9.4395217    -183013.4     815.7454   -182197.66    163910.13   0.75570592   0.20731606     0.239472   0.40083133 
  872000    304.13446    304.96641   -236.83471   -183011.08    813.58944   -182197.49    164087.18   0.75347115   0.20755689    0.2390597   0.40002925 
  874000    304.83288    305.81189   -172.47247   -183013.59    815.84501   -182197.74    164397.19   0.75182482   0.20734201   0.23834507   0.39917063 
  876000    303.54699    305.18906   -66.634583   -183011.59     814.1834    -182197.4    164859.19   0.74997175   0.20832213   0.23836812   0.39888733 
  878000    299.26601    302.79475   -161.06134   -183005.39    807.79587   -182197.59    165541.75   0.74937542   0.20684953   0.23756276   0.39792924 
  880000    298.49609    302.75764   -66.153154    -183005.3    807.69687    -182197.6    165645.32   0.75393395   0.20679638   0.23713955   0.39928996 
  882000    299.28017    304.98189    61.536793   -183011.13    813.63072   -182197.49    165274.85   0.75771082   0.20642605   0.23707858   0.40040515 
  884000    301.42733    304.57513    173.41308   -183010.07    812.54556   -182197.53    164167.14   0.75657392   0.20609957   0.23694268   0.39987206 
  886000    303.65647    305.34097   -153.24506   -183011.99    814.58867    -182197.4    163611.95   0.75498972   0.20536969   0.23542997   0.39859646 
  888000      299.299    302.59538    155.50369   -183004.72      807.264   -182197.45    163286.85   0.75340541   0.20505656   0.23472927   0.39773041 
  890000     304.2341    304.36963   -347.66151   -183009.57    811.99735   -182197.57    163212.99    0.7522883   0.20458263   0.23451271   0.39712788 
  892000    304.77871     305.2687   -123.41835   -183011.97    814.39587   -182197.57    164077.26   0.76155206   0.20452161   0.23485921   0.40031096 
  894000    304.88263    305.97367   -31.153764   -183013.83     816.2766   -182197.55    164741.94   0.76423674   0.20468259   0.23744745   0.40212226 
  896000    302.63934    303.19387    -161.5945   -183006.34    808.86065   -182197.48     164430.2   0.76578168    0.2041864   0.23742501   0.40246436 
  898000    304.15919    305.77652   -190.64534   -183013.22    815.75065   -182197.47    164207.82    0.7665983   0.20633315   0.23695732   0.40329625 
  900000    302.07959    303.37699   -286.76305   -183006.76    809.34917   -182197.41    163488.72   0.76854255   0.20501373   0.23639325   0.40331651 
  902000    303.49032    304.49212    10.705212   -183009.68    812.32411   -182197.35    162897.66   0.77028762   0.20432556   0.23613035   0.40358117 
  904000    302.65273    304.46192   -232.43327   -183009.52    812.24356   -182197.28    162470.89   0.76778875   0.20450954   0.23616717   0.40282182 
  906000    300.57784    304.35073    43.304842    -183009.4    811.94693   -182197.46    162926.34    0.7661637   0.20521536   0.23613276   0.40250394 
  908000     305.8928    306.55919    40.917938   -183015.21    817.83866   -182197.37    163128.27   0.76535263   0.20566411   0.23664252   0.40255308 
  910000    301.31182    302.69096    -20.11997   -183004.88    807.51897   -182197.37    163833.55   0.76645045   0.20606057   0.23542316   0.40264473 
  912000    301.45295    305.22818   -104.48571   -183011.55    814.28779   -182197.26    164387.15   0.76643099   0.20553035   0.23496186   0.40230773 
  914000    303.95778    304.08807   -135.55932   -183008.56    811.24621   -182197.32     164607.7   0.77058705   0.20482098   0.23461654   0.40334152 
  916000    303.76225    304.27591   -246.43783   -183009.07     811.7473   -182197.32    164757.77   0.77119785    0.2068648   0.23427657   0.40411307 
  918000    300.05399    302.49643   -1.4072888   -183004.29    807.00002   -182197.29    165237.02   0.77015518   0.20646806   0.23496612   0.40386312 
  920000    300.10794    304.18933   -173.44067   -183008.74    811.51632   -182197.22    165776.41   0.77119001   0.20631879   0.23505723   0.40418868 
  922000    299.48595    303.80136    53.814205   -183007.76    810.48131   -182197.27    165266.28   0.76978899    0.2057822   0.23507867   0.40354995 
  924000    304.85535    306.73257   -21.404338   -183015.72     818.3012   -182197.42    164637.01   0.76831264   0.20540258   0.23402158   0.40257893 
  926000    302.99026    304.87923   -222.96122   -183010.67    813.35685   -182197.32    164796.48   0.76811465   0.20526895   0.23401335   0.40246565 
  928000    303.89737    303.85394   -18.719056    -183008.1    810.62158   -182197.48    165343.19   0.76925492   0.20610143   0.23346478   0.40294038 
  930000    305.29935    303.82284   -240.80489   -183007.96    810.53861   -182197.42    166439.04   0.76730727   0.20618129   0.23310443   0.40219766 
  932000    302.55288    304.42844   -256.08451   -183009.42    812.15422   -182197.26    167209.16   0.76585515   0.20533953   0.23253267   0.40124245 
  934000    300.75663    303.13088   -148.91604    -183005.9    808.69261   -182197.21    167457.97   0.76505464    0.2060454   0.23243064   0.40117689 
  936000    305.02456    305.20044   -4.7615738   -183011.47    814.21377   -182197.26    166796.72   0.76369311   0.20583613   0.23204928   0.40052617 
  938000    305.08482    303.92974   -227.42713   -183008.17    810.82381   -182197.35    165473.65   0.76391383   0.20593048   0.23270797   0.40085076 
  940000    307.65948    307.30023   -34.231834   -183017.07     819.8156   -182197.26     164726.6   0.76603699   0.20750839   0.23212898   0.40189145 
  942000    304.32362     303.0548    -77.17332   -183005.81    808.48964   -182197.32    165044.41   0.76956752   0.20772567   0.23166212    0.4029851 
  944000    304.58944     303.6595   -212.80929   -183007.44    810.10286   -182197.34    165577.84   0.77153344   0.20945685   0.23194878   0.40431302 
  946000    306.50123    305.45786    -261.8976   -183012.01    814.90052   -182197.11    166377.13   0.76941754   0.21172811   0.23133877   0.40416147 
  948000    304.30223    304.54228   -21.450792   -183009.67    812.45794   -182197.21    166628.96   0.76818698   0.21150903   0.23082718   0.40350773 
  950000    304.84003    303.93352    -20.00717   -183008.22    810.83388   -182197.39    166021.86   0.76898662   0.21102626   0.23059149   0.40353479 
  952000    303.94224    304.38841   -118.71993   -183009.32    812.04744   -182197.27    164697.49   0.76920557   0.21053808   0.23384295   0.40452887 
  954000    305.09252    303.92155    147.59196   -183008.09    810.80196   -182197.29    164102.06   0.76974518   0.21013682   0.23279005   0.40422402 
  956000     306.2608    305.80288   -299.68114   -183013.18    815.82097   -182197.36    164611.54   0.76976266   0.20987159   0.23258948   0.40407458 
  958000    306.64808    304.61964   -263.77954   -183010.11    812.66431   -182197.44    165879.88   0.77276038   0.21031628   0.23353649   0.40553772 
  960000    304.33568     303.0971   -219.31645   -183005.86    808.60248   -182197.26    166556.75   0.77585774   0.20991231   0.23247889   0.40608298 
  962000    304.14723     303.3989   -197.55546   -183006.61    809.40762   -182197.21    166434.76   0.77399248   0.20988749   0.23270725   0.40552907 
  964000    300.89441    302.55024    135.03761   -183004.45    807.14358   -182197.31    166112.56   0.77412424   0.20962497   0.23339811   0.40571578 
  966000    303.58792    304.32326    14.541461   -183009.12    811.87364   -182197.25    165918.81   0.77591481   0.20926913   0.23294618   0.40604337 
  968000    305.18924    304.45545   -390.48686   -183009.56     812.2263   -182197.34    166572.75   0.77782843   0.21003483   0.23253757   0.40680027 
  970000    302.19795    303.93842   -141.62089   -183008.04    810.84696    -182197.2    166987.77   0.77666414   0.20960362   0.23282716   0.40636497 
  972000    304.20226    303.39374   -205.77301   -183006.63    809.39386   -182197.24    166913.97   0.77507146   0.20945473   0.23243411   0.40565344 
  974000    305.74324    302.93281   -321.08409   -183005.51     808.1642   -182197.35    166827.87   0.77475454   0.20960847   0.23200805   0.40545702 
  976000    303.18353    303.19247    4.9004629   -183006.11    808.85691   -182197.25    166212.42   0.77466063   0.20886841   0.23366941   0.40573281 
  978000    303.03403    304.00441   -125.81888   -183008.35    811.02301   -182197.32    164986.92   0.77463068   0.21029415   0.23332468   0.40608317 
  980000     305.8735    304.03127   -32.423516   -183008.46    811.09467   -182197.37    163975.38    0.7784069   0.21036529   0.23759238   0.40878819 
  982000    304.85575     303.6653   -187.95813   -183007.46    810.11832   -182197.34    163909.25   0.77945584    0.2101812   0.23635845   0.40866516 
  984000    302.36369     301.9776   -208.66856   -183002.94    805.61588   -182197.32    164379.84   0.78100577   0.20999503   0.23575625   0.40891901 
  986000    301.72088    304.03965    -42.98686   -183008.47    811.11702   -182197.35    164401.53   0.77958899   0.21037931   0.23509759    0.4083553 
  988000     308.7196     306.1098   -1.8680834   -183014.05    816.63976   -182197.41    164167.99   0.77743811   0.21064051    0.2342415   0.40744004 
  990000    305.29104    305.52132   -100.30345   -183012.37    815.06982    -182197.3    165369.45   0.77609633   0.20988224    0.2336556   0.40654472 
  992000    302.69055    303.96538    24.541466   -183008.13    810.91889   -182197.21    166077.83   0.77494636   0.20954301   0.23478824   0.40642587 
  994000    303.33061    304.99916   -250.61193   -183010.96     813.6768   -182197.28     167024.7   0.77392898   0.20955155   0.23746315   0.40698123 
  996000    303.28733    302.51055   -142.90693   -183004.19    807.03768   -182197.15    167195.68   0.77177436   0.21137438   0.24172756    0.4082921 
  998000    302.19842    303.19644   -190.65366   -183006.09    808.86751   -182197.22    167222.41   0.77141061   0.21088096   0.24062606   0.40763921 
 1000000    301.96908    302.91339   -146.77554    -183005.4    808.11239   -182197.29    166906.67   0.77095407   0.21022426   0.24071008   0.40729614 
 1002000    305.94789    305.09608    64.946411   -183011.18    813.93537   -182197.25     166023.8   0.77059858   0.21021599   0.24040643   0.40707367 
 1004000    303.48494    304.24456    144.05198   -183008.89    811.66368   -182197.22    165607.05   0.77012177   0.20991628   0.24020251   0.40674685 
 1006000    310.65006    307.40663    168.34798   -183017.49    820.09945   -182197.39    165497.97   0.76890875   0.21069223    0.2400472   0.40654939 
 1008000    305.69641      304.379   -214.84414   -183009.33    812.02234    -182197.3    164741.53   0.76749125   0.21084698    0.2416962   0.40667815 
 1010000    309.98492    306.20192   -188.37313   -183014.22    816.88552   -182197.33    163791.18   0.76595584   0.21006633   0.24247903   0.40616707 
 1012000     308.7617     305.7466    24.889097   -183012.89    815.67082   -182197.21     163441.6   0.76465936   0.21062807   0.24624205   0.40717649 
 1014000    309.25823    305.46084   -196.20073   -183012.12    814.90848   -182197.21     164160.3    0.7684905   0.21206199   0.24505171   0.40853473 
 1016000    304.87853    304.52318    30.002358   -183009.76    812.40697   -182197.35    165607.54   0.77012018   0.21305667     0.244837   0.40933795 
 1018000    304.45845    303.14653    24.985142   -183005.87    808.73434   -182197.13    166606.57   0.76938318   0.21246958   0.24570631   0.40918636 
 1020000    306.04742     304.3382   -294.58721   -183009.08    811.91349   -182197.17    167194.86   0.77003139   0.21201762   0.24600277   0.40935059 
 1022000    308.29245    305.70991   -81.989863    -183012.7    815.57295   -182197.12    167286.68   0.76917004   0.21235429   0.24555383   0.40902605 
 1024000    306.20201    305.65368   -197.06107   -183012.51    815.42294   -182197.08    167307.93   0.77010137    0.2120307   0.24627272   0.40946826 
 1026000    303.21668    303.43621   -76.542242   -183006.73    809.50715   -182197.22    166647.33   0.76995497   0.21306615    0.2476426   0.41022124 
 1028000    304.88715    304.30779   -116.78803   -183008.98    811.83235   -182197.15    165767.58   0.76957954   0.21545256   0.24746293   0.41083168 
 1030000    304.59724    303.79047   -410.62826   -183007.68    810.45225   -182197.23    165011.11   0.76951499   0.21522552   0.24701268    0.4105844 
 1032000    307.59048    306.92149    119.68304   -183015.98     818.8052   -182197.17    164964.25   0.76901577   0.21514497   0.24683105   0.41033059 
 1034000    304.97643    304.10434   -125.06206   -183008.51     811.2896   -182197.22    165269.32   0.76886565   0.21469389   0.24808862   0.41054939 
 1036000    304.04409    304.41605    -56.62104    -183009.2    812.12118   -182197.08    165997.14   0.77000346   0.21465365   0.24706369    0.4105736 
 1038000     302.0558    301.93491   -130.22046   -183002.35      805.502   -182196.85    167224.23   0.77172789   0.21447642   0.24650497   0.41090309 
 1040000    302.38028    303.40166   -59.647796   -183006.28    809.41499   -182196.87    167432.68   0.77563014   0.21415133   0.24671018   0.41216388 
 1042000    306.45592    305.39897    -228.9925   -183011.86    814.74341   -182197.12     166534.1    0.7739829   0.21361275   0.24774032   0.41177866 
 1044000    305.85735    304.81267   -116.43843   -183010.16    813.17929   -182196.98    165544.94   0.77527533   0.21326656   0.24615792    0.4115666 
 1046000    303.35633    303.43004   -76.307687   -183006.47    809.49071   -182196.98    164293.48   0.77374899    0.2127319   0.24571829   0.41073306 
 1048000    299.85107    302.67494   -241.62193   -183004.63    807.47625   -182197.16    164014.29   0.77261356   0.21214487   0.24519281   0.40998375 
 1050000     302.6457    303.85355    -107.3795   -183007.69    810.62055   -182197.07    164049.61   0.77133364   0.21202768   0.24458556   0.40931563 
 1052000    303.41724    304.54407    -176.1579    -183009.5     812.4627   -182197.04    164082.76   0.77042761   0.21164628   0.24559309   0.40922233 
 1054000     304.2771     304.0642   -291.27603    -183008.3    811.18252   -182197.12    164001.91    0.7716255   0.21118428   0.24451761   0.40910913 
 1056000     304.0607    304.51621   -287.19415   -183009.52    812.38839   -182197.13    163608.37   0.77007113   0.21108288   0.24403934   0.40839778 
 1058000     297.0152    301.68595   -53.048002   -183001.92    804.83783   -182197.08    163850.27   0.76866744   0.21115134    0.2434843   0.40776769 
 1060000    300.61374    302.68901    13.570344   -183004.49    807.51379   -182196.98    164264.03   0.76721691   0.21211615   0.24280301   0.40737869 
 1062000    300.69757    303.29167   -166.76841   -183006.25    809.12157   -182197.13    164380.87   0.76664271   0.21191231   0.24210148    0.4068855 
 1064000     303.7467    306.15642   -301.44747   -183013.86    816.76415    -182197.1     164163.3   0.76685306   0.21168634   0.24185655   0.40679865 
 1066000     303.7894    305.14477   -119.36868   -183011.23    814.06526   -182197.17    163761.68   0.76608705   0.21154121   0.24141318   0.40634715 
 1068000    303.91598    307.23854   -185.77988   -183016.83    819.65102   -182197.18    163492.03   0.76569779   0.21116452   0.24094027   0.40593419 
 1070000    304.13413    304.53081   -143.00472   -183009.47    812.42734   -182197.04    163294.08   0.76554086   0.21089974   0.24065654   0.40569905 
 1072000    304.05506    305.42635   -100.66738   -183011.99    814.81644   -182197.17    163649.79   0.76870322   0.21063787   0.24074321   0.40669477 
 1074000    304.67194    305.84448   -91.260199   -183013.02    815.93195   -182197.09    163974.88   0.77266663   0.20995221   0.24032757    0.4076488 
 1076000    302.00144    304.09899   -104.08833   -183008.24    811.27531   -182196.97    164554.26   0.77335004   0.21233816   0.24023338   0.40864053 
 1078000    299.23914    302.54485   -182.98004   -183004.19    807.12918   -182197.06     164605.9   0.77341923   0.21175181   0.24458749   0.40991951 
 1080000    303.26545    304.36312   -60.389607    -183009.1    811.97998   -182197.12    164323.89   0.77327365   0.21187131     0.244286   0.40981032 
 1082000    305.92925    306.82647    41.078354   -183015.46     818.5517    -182196.9    164007.45   0.77381683   0.21119764   0.24375387   0.40958945 
 1084000    302.62138     303.5317   -168.04201   -183006.67    809.76191   -182196.91    164098.71   0.77508554   0.21227252   0.24324161   0.41019989 
 1086000    305.53572    306.41842    75.590445   -183014.37    817.46309   -182196.91    164684.94   0.77573601    0.2137171    0.2429457    0.4107996 
 1088000    300.53947    303.50707   -17.910133   -183006.63    809.69621   -182196.93    165473.32   0.77559281   0.21361445   0.24242602   0.41054443 
 1090000     304.5432    306.45861   -46.871004   -183014.55    817.57033   -182196.98    166278.04   0.77439591   0.21409573    0.2434963   0.41066265 
 1092000    302.68147    304.47496   -123.77229   -183009.27    812.27835   -182196.99    166715.53   0.77303785   0.21367365   0.24655996   0.41109049 
 1094000    302.26778    303.86793   -97.501589   -183007.65    810.65891   -182196.99    166693.11   0.77189616   0.21398159   0.24850539   0.41146105 
 1096000     303.2918    305.35979    23.783539   -183011.65     814.6389   -182197.02    166531.72   0.77056526    0.2151331   0.24842652   0.41137496 
 1098000    303.27722    305.09064    -93.43604   -183010.89    813.92085   -182196.97    165643.73    0.7694709    0.2155005   0.24853199    0.4111678 
 1100000    305.11926    306.40877   -70.016123   -183014.33    817.43737   -182196.89    164565.22    0.7684202   0.21525442   0.24802596   0.41056686 
 1102000    302.83605    304.37641   -159.11231   -183009.05    812.01543   -182197.03    163932.94   0.76778077    0.2158493   0.24847007   0.41070005 
 1104000    303.11387    304.63843   -123.20678   -183009.69    812.71444   -182196.97    163385.08   0.77143379   0.21610049   0.24820128   0.41191185 
 1106000    301.00673    305.32818    203.03933    -183011.4    814.55455   -182196.84    163228.96    0.7734564    0.2160819   0.24874001   0.41275944 
 1108000    303.97076    305.51898    -156.4279   -183011.94    815.06357   -182196.88    163609.64   0.77235336   0.21569554   0.24802231   0.41202374 
 1110000     302.3109    305.30466    45.152384   -183011.39    814.49182    -182196.9    164263.97   0.77151949   0.21537956   0.24759028   0.41149644 
 1112000    303.39714    305.63579   -309.76555   -183012.38     815.3752      -182197     164726.3   0.77494161   0.21622049   0.24730879   0.41282363 
 1114000    304.36776    305.96776   -107.66002   -183013.18    816.26084   -182196.92    164775.66   0.78080132   0.21587038   0.24703916   0.41457029 
 1116000    299.70819    303.74831    43.319555   -183007.36    810.33977   -182197.02     164177.4   0.78128659   0.21550585   0.24672913   0.41450719 
 1118000    303.67423    304.67302    -74.81292   -183009.65    812.80673   -182196.85    164040.59   0.78013316   0.21549675    0.2464155   0.41401514 
 1120000    304.25103    304.78966    75.132035   -183010.05    813.11788   -182196.93    163811.28   0.78011804   0.21481971   0.24604245   0.41366006 
 1122000    303.77403     304.9565   -159.45462   -183010.59    813.56299   -182197.03    163760.67   0.78127692   0.21506337   0.24560165   0.41398065 
 1124000    301.44558    304.40101   -177.44244    -183008.9    812.08105   -182196.82    164715.26   0.77945499   0.21471107   0.24504447   0.41307018 
 1126000    299.68924    301.78547    18.716287   -183002.03    805.10332   -182196.93    165730.32    0.7779125   0.21423262   0.24527051   0.41247187 
 1128000     302.8431    304.28581   -125.37817   -183008.79    811.77373   -182197.02    166396.69   0.77708849   0.21379454   0.24644939   0.41244414 
 1130000    307.86452     305.7605   -135.92462   -183012.71     815.7079      -182197    166265.43   0.77959194   0.21311919   0.24656855   0.41309323 
 1132000    303.16933    303.65206   -9.7753408   -183007.08    810.08302      -182197    166697.91   0.78789561    0.2138167   0.24600687   0.41590639 
 1134000     299.4741    302.59743   -170.75716   -183004.03    807.26947   -182196.76    166583.44   0.78775318   0.21646823    0.2452609   0.41649411 
 1136000    304.50903    305.91668   -52.886651   -183012.96    816.12456   -182196.84    165532.45   0.78973726   0.21590986   0.24484244   0.41682985 
 1138000    305.32336     305.8905   -63.019617   -183012.94    816.05473   -182196.89    164225.34   0.79152333   0.21565353   0.24485341   0.41734342 
 1140000    302.50283    304.24837   -21.582469   -183008.68    811.67384      -182197    163369.76    0.7930361   0.21548853   0.24490766   0.41781077 
 1142000    303.57216     304.8449    -219.7597   -183010.19    813.26526   -182196.92    163607.72   0.79333516   0.21538683   0.24449103   0.41773767 
 1144000    303.21436    302.77705   -129.77214    -183004.6    807.74865   -182196.85    164310.53   0.79359673    0.2149575   0.24420921   0.41758781 
 1146000    303.34851    303.19191   -250.14705   -183005.68    808.85542   -182196.82    165221.89   0.79226734    0.2159066   0.24413784   0.41743726 
 1148000    301.84309    303.20887   -306.32415   -183005.77    808.90068   -182196.87    166273.07    0.7907699   0.21566829   0.24424128   0.41689315 
 1150000    302.45539    303.80763    104.92548   -183007.27    810.49804   -182196.78    166955.15   0.79063216   0.21513546   0.24377242   0.41651334 
 1152000    302.92441    302.82611   -247.74198   -183004.61    807.87955   -182196.73    166406.82   0.78967819   0.21508228   0.24357414   0.41611154 
 1154000    302.17574     303.0396   -12.660498   -183005.31    808.44909   -182196.86    165112.37   0.78853238    0.2156992   0.24310755   0.41577971 
 1156000    303.69658    304.00503   -211.53032   -183007.92    811.02465   -182196.89    163869.61   0.78931035   0.21520847   0.24378023   0.41609968 
 1158000    304.90849    304.83478   -155.30863   -183010.04    813.23828    -182196.8    163163.34   0.79003402   0.21486358   0.24302239   0.41597333 
 1160000    309.33122    306.76115   -227.60463   -183015.04    818.37743   -182196.67    163067.99   0.79005207   0.21452041   0.24277705   0.41578318 
 1162000    305.15853    304.69794   -63.527386   -183009.71    812.87321   -182196.84    163195.29   0.79078206   0.21432475   0.24247998   0.41586227 
 1164000     303.9285    304.36372    41.980256   -183008.92    811.98157   -182196.94    163930.42   0.79591044   0.21419392   0.24220979   0.41743805 
 1166000    307.45642    305.71165   -150.40796   -183012.52    815.57759   -182196.95    164860.73   0.79923717   0.21380402   0.24186392    0.4183017 
 1168000    306.33313    304.81947   -24.856522   -183009.96    813.19742   -182196.76    165304.17   0.79809073   0.21335064   0.24375215   0.41839784 
 1170000    309.31601    307.15888    129.71395   -183016.31     819.4385   -182196.87    165535.31   0.79829809   0.21295983   0.24499262   0.41875018 
 1172000    303.66041    303.69884   -235.77886   -183006.93     810.2078   -182196.72    165815.86   0.80280471   0.21249904   0.24372996    0.4196779 
 1174000    301.74153    301.45018   -216.78357   -183000.96    804.20883   -182196.75    166866.54   0.80656256    0.2123678   0.24487386   0.42126807 
 1176000    304.31782    304.23991   -273.52227   -183008.37    811.65128   -182196.72    167570.19   0.80815968    0.2128146   0.24402474   0.42166634 
 1178000    303.25429    305.10991    142.11752   -183010.58    813.97225   -182196.61    167321.69   0.80686495    0.2124642   0.24385893    0.4210627 
 1180000      301.161    303.00605   -58.042138   -183005.12    808.35958   -182196.76    166242.19    0.8077841   0.21209394   0.24386305   0.42124703 
 1182000    305.77955    304.75052   -102.39314   -183009.87    813.01347   -182196.86    164768.09   0.80846754   0.21278993   0.24471676   0.42199141 
 1184000    307.57953    305.29865    58.218716   -183011.09    814.47579   -182196.61    164039.89    0.8099074   0.21205333   0.24379751   0.42191941 
 1186000    302.91987    302.63205   -121.72628   -183004.02    807.36182   -182196.65    164900.83   0.80860477   0.21319611    0.2433501   0.42171699 
 1188000    305.73062    304.84417   -144.88433   -183009.95    813.26331   -182196.68    166006.91   0.80731038   0.21390642   0.24340669   0.42154116 
 1190000      299.247    300.36454   -131.58754   -182997.96    801.31255   -182196.65    166500.08   0.80837286    0.2137441   0.24312842   0.42174846 
 1192000    305.46218    303.01678   -25.403687   -183005.08     808.3882    -182196.7    166037.33   0.80748988   0.21342875   0.24333998   0.42141953 
 1194000    306.48465    303.51677    -196.4543   -183006.35    809.72207   -182196.63    165820.86   0.80675406   0.21310063   0.24315827   0.42100432 
 1196000    303.83087    302.75418   -187.85424   -183004.37    807.68764   -182196.68    165849.83   0.80566249   0.21289528   0.24286238   0.42047338 
 1198000    303.73384    302.78288   -233.13973   -183004.36    807.76422   -182196.59    166414.48   0.80603842   0.21330044   0.24226622   0.42053503 
 1200000    302.04742    302.78229   -140.27758   -183004.34    807.76263   -182196.58    167026.28   0.80603806   0.21284443    0.2418202   0.42023423 
 1202000    304.41508    303.32823   -164.23194   -183005.85    809.21909   -182196.63    167555.69   0.81084874     0.213659     0.241798   0.42210192 
 1204000    300.29948    301.77953   -87.576031    -183001.7    805.08747   -182196.61    168259.79   0.81209815   0.21323826   0.24143247   0.42225629 
 1206000    306.02048    305.34486   -276.46084   -183011.26    814.59906   -182196.66    167864.17   0.81254557   0.21333881   0.24224228   0.42270889 
 1208000    305.66185     304.6065   -63.988357   -183009.28    812.62926   -182196.65    166868.74   0.81156404   0.21339117   0.24192465   0.42229329 
 1210000    303.98824     303.1681   -167.77762   -183005.42     808.7919   -182196.63    166517.77   0.81042011   0.21447681   0.24154178   0.42214623 
 1212000    307.87174    305.58619    4.9652188   -183011.91    815.24287   -182196.67    166316.58   0.80926617   0.21448007   0.24130149   0.42168257 
 1214000     306.6625    304.64413   -318.01221   -183009.49    812.72966   -182196.76    165783.07   0.80889372   0.21523663    0.2415686   0.42189965 
 1216000    304.25675     302.9712   -135.64527    -183004.9    808.26662   -182196.63    165478.58    0.8086479   0.21511865   0.24124177   0.42166944 
 1218000    306.08647     305.0437   -288.29176   -183010.43    813.79563   -182196.63    165243.97   0.80870157    0.2149453   0.24104253   0.42156313 
 1220000    303.51296    303.16171   -34.543848   -183005.22    808.77485   -182196.45    165345.96    0.8099339   0.21497424   0.24042787   0.42177867 
 1222000    306.02438    304.46902   -358.32874   -183008.97    812.26249   -182196.71    164811.88   0.80896852   0.21510817   0.24038752   0.42148807 
 1224000    306.50943    304.88905   -190.52287   -183009.94    813.38304   -182196.55     164723.3   0.80757408   0.21480187   0.24008248   0.42081948 
 1226000    306.67154    306.05723   -196.40189   -183013.23    816.49953   -182196.73    165020.13   0.80662072   0.21502767   0.24099716   0.42088185 
 1228000    306.42222    305.34052   -198.30564   -183011.19    814.58749    -182196.6    164682.51   0.80732216   0.21497689   0.24061273   0.42097059 
 1230000    307.60739    305.04122   -224.72566   -183010.44      813.789   -182196.65    165092.53   0.81159274    0.2148372   0.24034348   0.42225781 
 1232000    303.28434    302.46217   -68.451404   -183003.33    806.90862   -182196.42     166105.4   0.81383315   0.21450265   0.24030177   0.42287919 
 1234000    302.39439    302.65143   -265.49011   -183003.91    807.41352   -182196.49    166771.56   0.81372538   0.21498229   0.24133853   0.42334873 
 1236000    306.50323    303.82028    67.239303   -183007.04    810.53179   -182196.51    166438.74   0.81447641   0.21453736   0.24162561   0.42354646 
 1238000    304.01856    302.22296   -112.08515   -183002.83    806.27045   -182196.56    165420.08   0.81427559   0.21464149   0.24186996   0.42359568 
 1240000    306.77343     305.5586   -58.648398   -183011.74    815.16929   -182196.57    165509.58    0.8128498   0.21396703   0.24142116     0.422746 
 1242000     305.4407    303.70166    86.264863   -183006.78    810.21534   -182196.56    165730.21   0.81148176   0.21352497   0.24243074   0.42247916 
 1244000     306.8883    304.56603   -188.26266   -183008.93     812.5213    -182196.4    165822.21   0.81008443    0.2131804   0.24369138   0.42231874 
 1246000    305.19365    303.74626   -191.51354    -183006.8    810.33432   -182196.46    165581.84   0.80941457   0.21310693   0.24297457   0.42183202 
 1248000    307.55064    305.21982   -214.39787   -183010.69    814.26549   -182196.42    165243.03   0.80797366    0.2130533   0.24289413   0.42130703 
 1250000    306.29001    305.56136   -132.47613   -183011.67    815.17663    -182196.5    164316.26   0.80812749   0.21314306   0.24304484   0.42143846 
 1252000    302.92164    303.39029   -228.60978   -183005.88    809.38467   -182196.49    163534.81   0.80710638     0.212884   0.24266217   0.42088418 
 1254000    307.10496    305.06994   -392.87258   -183010.33    813.86561   -182196.47    162763.82   0.80600584   0.21255575    0.2425644   0.42037533 
 1256000    303.41184    305.47128   -128.03624   -183011.48    814.93633   -182196.54    163359.66   0.80474076   0.21250941   0.24227256   0.41984091 
 1258000    306.68995    306.27008   -83.512036   -183013.75    817.06735   -182196.68    164939.42   0.80462946   0.21273804   0.24188685   0.41975145 
 1260000    307.09687    303.53718   -41.351614   -183006.17    809.77653   -182196.39    165953.29   0.80320034   0.21252395   0.24152053   0.41908161 
 1262000    305.78609    303.37909   -125.33637   -183005.66    809.35477   -182196.31    166933.21   0.80461523   0.21234217   0.24117541    0.4193776 
 1264000     302.3732    304.63802   -33.368181   -183009.01    812.71334   -182196.29    167341.45   0.80733396   0.21273761   0.24076862   0.42028006 
 1266000    305.10587    304.09806   -176.37877   -183007.47    811.27284    -182196.2    166858.67   0.80611532   0.21203467   0.24060835   0.41958611 
 1268000    303.49992    303.83383   -150.97185   -183006.95    810.56793   -182196.39    165799.38   0.80447871   0.21216325   0.24032841   0.41899012 
 1270000    305.51662     304.2231   -148.35017   -183007.86    811.60643   -182196.25    164874.98   0.80720945   0.21191745   0.24191729   0.42034806 
 1272000    305.86667    305.64452   -92.441637   -183011.67    815.39849   -182196.28     164469.7   0.80739092   0.21201476   0.24125937   0.42022168 
 1274000    304.04257    303.72706   -135.67768   -183006.53    810.28309   -182196.25    164386.32   0.80688699   0.21305412   0.24058121   0.42017411 
 1276000    304.78052    305.84947    155.68508      -183012    815.94526   -182196.05    164345.52   0.80628291    0.2129246   0.24031596   0.41984116 
 1278000    303.92394    303.25879   -97.327485    -183005.2    809.03385   -182196.16    164310.98   0.80472879   0.21269785   0.24050491   0.41931052 
 1280000    302.68521    302.37106   -222.14376   -183002.73    806.66554   -182196.06    164488.45   0.80387411   0.21242379   0.24114625   0.41914805 
 1282000    307.17347    305.90649    157.17145   -183012.29    816.09738   -182196.19    165158.87    0.8030644   0.21224821   0.24081965   0.41871075 
 1284000    304.88204    303.69734   -55.858898   -183006.53    810.20381   -182196.33    165637.33   0.80433321    0.2116973   0.24174563   0.41925872 
 1286000    302.79436    302.39367    -140.5089   -183002.78    806.72588   -182196.05    165995.79    0.8061778   0.21127706   0.24162311   0.41969266 
 1288000    307.24385    304.69943    19.598042   -183009.04    812.87717   -182196.16    165695.05    0.8055697   0.21169021   0.24104722   0.41943571 
 1290000    301.05349    304.00204   -200.23395   -183007.13    811.01668   -182196.11    164844.79   0.80587092   0.21206059    0.2411601    0.4196972 
 1292000    304.58775    304.16112   -53.361339   -183007.36    811.44107   -182195.92    164561.14   0.80456676   0.21223146   0.24079686   0.41919836 
 1294000    306.21455    305.31686   -35.141126   -183010.73    814.52436   -182196.21    164655.26   0.80370994   0.21174061   0.24056648   0.41867234 
 1296000    304.78176    304.27776   -118.19722   -183007.97    811.75225   -182196.22    164624.96   0.80230037   0.21148111   0.24032689   0.41803612 
 1298000    307.06886    304.47831    123.40453   -183008.49    812.28726    -182196.2    164797.94   0.80158606    0.2114328   0.24002343   0.41768076 
 1300000    305.75555     305.2402    -338.3752   -183010.49    814.31985   -182196.17    164953.16    0.8006461   0.21168976   0.23945846   0.41726477 
 1302000    303.31842    304.15887   -122.57715   -183007.55    811.43508   -182196.11    165020.22   0.79948659    0.2120206   0.23937014   0.41695911 
 1304000    304.14005    304.51405   0.56584878   -183008.54    812.38262   -182196.15    164414.12   0.80028952   0.21212707   0.23981738   0.41741133 
 1306000    305.30526    305.44777   -171.32904   -183010.92    814.87359   -182196.05    164292.09   0.79971445   0.21177607   0.24066966   0.41738672 
 1308000     304.6231    305.59543    201.41475   -183011.52    815.26752   -182196.25    164383.44   0.80018874   0.21163855   0.24118434   0.41767054 
 1310000    301.58823    303.80698   -201.17652   -183006.64    810.49631   -182196.14    165476.73   0.80249464   0.21241436   0.24036744   0.41842548 
 1312000    302.87983    304.91404    39.562347   -183009.49    813.44973   -182196.04    166681.69   0.80348604   0.21451624   0.24014944   0.41938391 
 1314000    301.98565    303.30596   -30.184413   -183005.25    809.15967   -182196.09     166887.6   0.80241815   0.21529558   0.23974749   0.41915374 
 1316000    303.19643    305.21042   -150.30276   -183010.36     814.2404   -182196.12    167248.98   0.80107697   0.21519283   0.23959299   0.41862093 
 1318000    302.19911    303.94298    16.103736   -183006.78    810.85913   -182195.92    166871.21   0.80058361   0.21500754   0.24022467   0.41860527 
 1320000    300.79602    302.08999   -169.39974   -183001.82    805.91571   -182195.91    166334.68    0.8011729   0.21462906   0.23941999   0.41840732 
 1322000     304.0802    305.89763    100.53008   -183012.17    816.07373   -182196.09    165745.61   0.79992828   0.21439407   0.23929518   0.41787251 
 1324000      304.617     302.8965    58.209733    -183004.1    808.06732   -182196.03    165562.74   0.79920269   0.21414269   0.23895685   0.41743408 
 1326000    304.65884    304.89084   -252.15966   -183009.34    813.38782   -182195.95    166095.26   0.79857256   0.21495646   0.23867859   0.41740254 
 1328000    302.57858    303.27392   -31.213875   -183005.01    809.07422   -182195.94    165547.99   0.79810736   0.21701273   0.23833114   0.41781708 
 1330000     303.6619    303.66747   -4.6134757    -183006.1    810.12411   -182195.97    165227.25    0.7972985   0.21651216   0.23801614    0.4172756 
 1332000    306.93152    304.91937   -126.76519   -183009.52    813.46393   -182196.06    165793.06   0.79761784   0.21786101   0.23827426    0.4179177 
 1334000    302.29181    301.89283   -138.19732   -183001.39    805.38974      -182196    166533.83   0.79637988   0.21761138   0.23903923   0.41767683 
 1336000    305.24304     305.4731      -116.13   -183010.99    814.94119   -182196.05    166775.07   0.79535341   0.21735316   0.23909158   0.41726605 
 1338000    302.26761    301.59281    18.889736   -183000.61    804.58934   -182196.02    166747.73   0.79431956   0.21707965   0.23959403   0.41699775 
 1340000    304.83248    304.39466    -190.8362   -183008.05    812.06412   -182195.98    166520.91   0.79321794   0.21716172   0.24035989   0.41691318 
 1342000    305.12274    305.04726    24.247302   -183009.86    813.80512   -182196.05    165931.34   0.79230515   0.21690705   0.24013594   0.41644938 
 1344000    303.74974    304.95128   -163.50442   -183009.46    813.54906   -182195.91    165619.97   0.79130532   0.21943715   0.23980294   0.41684847 
 1346000    303.88973    305.65837   -100.62282   -183011.55    815.43545   -182196.11    165868.97   0.79164016   0.21971129   0.23969449   0.41701531 
 1348000    301.95418    304.54495     118.3617   -183008.41    812.46507   -182195.94    165887.88   0.79161798   0.21933857   0.23956822   0.41684159 
 1350000    303.96551     304.1192   -62.439439   -183007.34    811.32925   -182196.01    166130.35    0.7911109   0.21989961   0.23928448     0.416765 
 1352000     301.5123    303.98043   -252.30381   -183006.96    810.95902      -182196    165340.44   0.79249209   0.21940477    0.2385712   0.41682268 
 1354000    303.02599    303.63498   -152.28917   -183006.01    810.03743   -182195.98    163889.12   0.79607521   0.21935375   0.23829974   0.41790957 
 1356000    305.66902    304.97333   -62.772844   -183009.53    813.60789   -182195.92    163588.22   0.79767605   0.21964021   0.23818257   0.41849961 
 1358000    303.14833    304.73318   -77.797909   -183008.95    812.96722   -182195.98    163811.48   0.79833189   0.21981255   0.23778353   0.41864266 
 1360000    305.73584    306.28604    169.21554   -183013.06    817.10995   -182195.95     164457.6   0.79784289   0.21955087    0.2374182   0.41827065 
 1362000    303.16487    304.69457   -232.57525   -183008.68    812.86422   -182195.82    165500.78   0.79702246   0.21901684   0.23700849    0.4176826 
 1364000    304.94083    304.63489   -86.712583   -183008.56    812.70499   -182195.86    166703.51   0.79638977   0.21928734   0.23673159   0.41746957 
 1366000    301.97448    303.22247    6.6794442   -183004.77    808.93696   -182195.83    167112.25   0.79952404   0.21917707   0.23647842   0.41839318 
 1368000    299.02722    300.46149   -203.61019   -182997.29    801.57122   -182195.72    166593.66   0.79926998   0.21979556   0.23639596   0.41848716 
 1370000    303.17605    303.75457   -322.08307   -183006.35    810.35649   -182195.99     165208.1   0.80137315   0.21923934   0.23633751   0.41898333 
 1372000     306.2611    304.89878   -68.272069   -183009.36      813.409   -182195.95    163953.68   0.80219619   0.21895306   0.23657081   0.41924002 
 1374000    304.60641    304.46646    119.15664    -183008.2    812.25567   -182195.95    163690.31   0.80241463   0.21865306   0.24118625   0.42075131 
 1376000    306.10129    304.64035    21.036579   -183008.67    812.71956   -182195.95    164382.65   0.80100624   0.21838046   0.24176293   0.42038321 
 1378000    300.32499    300.94729    -124.5327   -182998.71    802.86723   -182195.84    165872.26   0.80062316   0.21841907    0.2413632   0.42013514 
 1380000    303.69073    303.11348   -192.23662   -183004.44    808.64619   -182195.79    167099.99   0.79947542   0.21817927   0.24188751    0.4198474 
 1382000    304.34147    302.91017   -16.479009   -183003.78     808.1038   -182195.67    168127.22   0.79848805   0.21765086   0.24238639   0.41950843 
 1384000    302.98985     303.3702   -12.417127   -183005.28    809.33106   -182195.95    167927.49   0.79792453   0.21735365   0.24198836   0.41908885 
 1386000    304.77535    305.48357   -117.61777   -183010.85    814.96912   -182195.88    166864.16   0.79679888   0.21707317   0.24164298   0.41850501 
 1388000    302.72809    304.42886   -269.45845   -183008.15    812.15535   -182195.99    165928.43   0.79606576   0.21675743   0.24138998   0.41807106 
 1390000    304.74279    304.45969   -45.556412    -183008.1    812.23759   -182195.86    165088.22   0.79703241   0.21697303   0.24100235   0.41833593 
 1392000    305.23907    304.01096    19.797439   -183006.88    811.04049   -182195.84    164436.82   0.79891262   0.21681474    0.2413551   0.41902748 
 1394000    305.37388     304.9754   -179.90271   -183009.45    813.61341   -182195.84    164523.12   0.79857503   0.21680386   0.24114384   0.41884091 
 1396000     306.0503    305.53216   -145.11495   -183010.97    815.09875   -182195.87    165116.48   0.79766659   0.21646884   0.24078884   0.41830809 
 1398000    306.58879     304.6054   -72.462106   -183008.38    812.62633   -182195.75    165376.27   0.79649288   0.21614489   0.24048424   0.41770733 
 1400000    304.30051     303.5645   -326.70501   -183005.56    809.84941   -182195.71    165406.67    0.7976874   0.21591704   0.24038277   0.41799573 
 1402000    304.61634    304.16803   -306.51335   -183007.21    811.45951   -182195.75    165094.37   0.80090947   0.21590077   0.24133418   0.41938147 
 1404000    305.73871    304.39117    109.00931   -183007.91     812.0548   -182195.86    165158.54   0.80586821   0.21578937    0.2403129   0.42065683 
 1406000    305.08463     306.2585    114.24081   -183012.84    817.03646    -182195.8    165014.84   0.81008451   0.21544208     0.240869   0.42213186 
 1408000    305.34059    305.39348    -235.4078   -183010.28    814.72877   -182195.55    164382.53   0.80954767   0.21504555   0.24026445   0.42161922 
 1410000    305.76336    306.03132   -31.725979   -183012.15     816.4304   -182195.72    163522.66   0.80927987   0.21478725   0.23990368    0.4213236 
 1412000    306.48413    307.06179    146.69288   -183014.93    819.17949   -182195.75    163176.99   0.81186468   0.21466171   0.23999684   0.42217441 
 1414000    304.44205    304.00069    22.881404   -183006.74    811.01309   -182195.73    164193.84   0.81273465   0.21462411   0.24040494    0.4225879 
 1416000    303.24903    304.91328    -131.6211   -183009.33    813.44769   -182195.88    165241.76   0.81390952   0.21484759   0.24071826   0.42315846 
 1418000    302.72819    303.84316   -182.48467   -183006.44    810.59283   -182195.84     165369.8    0.8140363   0.21445042   0.24041159   0.42296611 
 1420000    303.00001    303.53559   -296.67844   -183005.55     809.7723   -182195.78    164444.12   0.81255806   0.21442545   0.23996329    0.4223156 
 1422000    303.08432    303.59125   -56.689952   -183005.64    809.92078   -182195.72    163994.55    0.8130645   0.21455451   0.23958013   0.42239971 
 1424000     307.3281    305.34865   -153.86808   -183010.36    814.60918   -182195.75    163652.76   0.81594008   0.21492739   0.23922135   0.42336294 
 1426000    305.83269    304.75515    87.066472   -183008.64    813.02584   -182195.62    164077.83   0.81976789   0.21478772    0.2389065   0.42448737 
 1428000    303.09599    302.60711   -17.780273    -183002.9    807.29528   -182195.61    165151.25   0.82026498   0.21437951   0.23865819   0.42443423 
 1430000    304.27463    304.23619   -45.828248   -183007.21    811.64133   -182195.57    165807.52   0.81975074   0.21414899   0.23828285   0.42406086 
 1432000    303.68738    304.15329   -218.48512    -183007.2    811.42019   -182195.78    166235.43    0.8184442   0.21387983   0.23795386   0.42342596 
 1434000    303.93515    304.93943   -167.42731    -183009.2    813.51744   -182195.69    167102.96   0.82189234   0.21357451   0.23774512   0.42440399 
 1436000    306.44611    306.41812   -212.57181   -183013.27    817.46229   -182195.81    167123.18   0.82110562   0.21342028   0.23797905   0.42416832 
 1438000    304.26457    304.36362   -171.55472   -183007.68     811.9813    -182195.7    166311.87   0.82088066   0.21466455   0.23859843   0.42471455 
 1440000    304.76648    304.82154   -10.948597   -183008.92    813.20296   -182195.72    165199.02   0.81996058   0.21447512   0.23966875   0.42470149 
 1442000    303.76085    304.45748   -160.74045   -183007.83    812.23171    -182195.6     164223.7   0.81985542   0.21453119   0.24037519    0.4249206 
 1444000    306.62379    306.91041   -275.25082   -183014.58    818.77562   -182195.81    163920.63   0.82214245   0.21477268    0.2405172   0.42581077 
 1446000     302.9002    304.38211   -89.116864   -183007.65    812.03064   -182195.62    164431.21   0.82146956   0.21430269   0.24082974     0.425534 
 1448000    301.81009    303.19478   -159.33228   -183004.38    808.86307   -182195.52    165683.04   0.82178065   0.21416634   0.24010578   0.42535092 
 1450000    305.37219    304.43332   -92.248564   -183007.82    812.16724   -182195.66    166932.61   0.82143607   0.21434025   0.23993006   0.42523546 
 1452000    304.14373    304.00453    1.3815645   -183006.59    811.02333   -182195.57    167624.34    0.8213987    0.2141096   0.23979366   0.42510065 
 1454000    301.85989    303.06347   -206.07051   -183004.19    808.51277   -182195.68    167686.06   0.82170277   0.21394431   0.24021943   0.42528884 
 1456000    302.92203    302.68436   -180.31651    -183003.1    807.50136    -182195.6    167104.32   0.82247111   0.21342885     0.239941   0.42528032 
 1458000    307.08533    305.85101   -95.514242   -183011.47    815.94937   -182195.52    167260.92   0.82176923   0.21331045    0.2401837   0.42508779 
 1460000    306.36106    305.42826   -158.05482   -183010.35    814.82154   -182195.53    167169.84   0.82040269   0.21342324   0.23973685   0.42452092 
 1462000    304.89496     305.0465    42.036582   -183009.27    813.80308   -182195.46    166986.62    0.8212533   0.21316742   0.23950623   0.42464232 
 1464000    302.32421    302.82992     55.34052    -183003.4    807.88969   -182195.52    166831.96   0.82394612    0.2129872   0.23914268   0.42535867 
 1466000    304.21816     305.4798    5.6434974   -183010.58    814.95905   -182195.62    167259.13   0.82457995   0.21245809   0.23879709   0.42527838 
 1468000    300.51071    302.33108    -185.0056   -183002.11     806.5589   -182195.55     167104.5   0.82406007    0.2122089   0.23866592    0.4249783 
 1470000    302.83638    304.79927   -149.93729   -183008.61    813.14353   -182195.46    166053.37   0.82380978   0.21215075   0.23889462   0.42495172 
 1472000    305.07158    305.88069   -48.388346   -183011.64    816.02856   -182195.61    165656.95    0.8232324    0.2129222   0.23856611    0.4249069 
 1474000    302.36041    303.84868   -176.14152   -183006.07    810.60754   -182195.47    165261.45    0.8220401   0.21275288   0.23805041   0.42428113 
 1476000    301.79946    305.01992   -81.583771   -183009.18    813.73218   -182195.44    164924.97    0.8211105   0.21234473   0.23768588    0.4237137 
 1478000    304.68782    304.72834   -121.36928   -183008.51     812.9543   -182195.56    164813.01   0.82025303   0.21224792   0.23743918   0.42331338 
 1480000    306.56249    305.29238   -228.98361   -183009.94    814.45906   -182195.48    165077.75   0.81984199   0.21185417   0.23703178   0.42290931 
 1482000     300.0189     302.8835   -133.65362   -183003.39    808.03264   -182195.35    165775.93   0.82223449   0.21189189   0.23682801   0.42365146 
 1484000    300.02831    303.69075   -252.97503   -183005.55    810.18623   -182195.37       166860   0.82163232   0.21171897   0.23662454   0.42332528 
 1486000    303.95378    303.90056   -217.80505   -183006.36    810.74597   -182195.61     167403.5   0.82187614   0.21145931   0.23627662   0.42320403 
 1488000    303.19043    302.83948   -167.69978   -183003.35    807.91522   -182195.43    167056.56   0.82328637   0.21119894   0.23604301   0.42350944 
 1490000    307.92588    305.57081    21.890728   -183010.79    815.20184   -182195.59    166062.95   0.82335945   0.21081705    0.2357032   0.42329323 
 1492000    304.71829    302.63811    1.7659454   -183002.86    807.37799   -182195.48    164783.74   0.82510313   0.21054758   0.23536759   0.42367277 
 1494000    307.47886    305.29075    8.1125278    -183010.1    814.45471   -182195.64    164320.83   0.82465558    0.2104608   0.23576359   0.42362666 
 1496000    307.25966    305.73715    43.559594   -183011.25     815.6456    -182195.6    164609.91   0.82306443   0.21106081   0.23556436   0.42322987 
 1498000    306.33176    306.04428   -101.51577   -183011.97    816.46498   -182195.51    165750.24   0.82259278   0.21200976   0.23526892   0.42329049 
 1500000    302.44276    302.81111   -40.246922   -183003.41    807.83951   -182195.57    166512.18   0.82205621   0.21156456   0.23500923   0.42287667 
 1502000    305.26135    304.62969   -289.85998   -183008.12    812.69112   -182195.43    167218.42   0.82169966   0.21167757   0.23467655   0.42268459 
 1504000    303.52971    303.00454   -230.03674   -183003.65    808.35554    -182195.3    167810.41   0.82094058   0.21141236   0.23498709   0.42244668 
 1506000    305.06421    304.87821   -119.77747   -183008.73    813.35413   -182195.38    167355.59   0.82096049   0.21146246   0.23423475   0.42221924 
 1508000    306.67456    305.27242    175.39755   -183009.94    814.40581   -182195.54    166335.86    0.8202908   0.21137277    0.2340299   0.42189782 
 1510000    302.33813    302.17371   -110.72624   -183001.56    806.13907   -182195.42    165135.36   0.82083393   0.21101484    0.2336299   0.42182622 
 1512000     303.1034    303.33284   -24.230349    -183004.6     809.2314   -182195.37    163853.04   0.82034144   0.21215922   0.23368714    0.4220626 
 1514000     304.4664    303.76005   -204.32313   -183005.92    810.37111   -182195.55    163572.25   0.81976478   0.21447476   0.23373819   0.42265924 
 1516000    306.71611    305.74443    40.695202   -183011.15    815.66504   -182195.49    164094.04   0.82150112   0.21414198   0.23347167   0.42303826 
 1518000    304.65681    302.85485   -117.16721   -183003.39    807.95622   -182195.43    164429.34   0.82393229    0.2134542   0.23328222   0.42355624 
 1520000    305.18934    306.20356   -82.109606   -183012.44     816.8899   -182195.55     165191.9   0.82294846    0.2130745   0.23301884   0.42301393 
 1522000    305.06468    305.27991   -80.277311   -183009.83    814.42578   -182195.41     165308.8   0.82255726   0.21279739     0.232849   0.42273455 
 1524000    304.00514     302.9225   -38.092416   -183003.52    808.13668   -182195.38    164918.83   0.82583033   0.21257506   0.23276346   0.42372295 
 1526000    303.40341    303.86361   -206.72527   -183006.18    810.64737   -182195.54    163985.49   0.82746293   0.21288163   0.23280395   0.42438284 
 1528000    306.74253    306.01727    84.928886   -183011.87    816.39292   -182195.48     163831.9   0.82646699   0.21259556   0.23296686    0.4240098 
 1530000    302.60048    304.93096   -90.261259   -183008.72    813.49486   -182195.22    164137.46   0.82524441   0.21244589   0.23285995   0.42351675 
 1532000    304.18011    303.92317    33.211026   -183006.16    810.80627   -182195.35    164458.34   0.82448748   0.21239697   0.23299622   0.42329356 
 1534000    302.45132    303.67758   -250.72792    -183005.4    810.15109   -182195.25    164991.39   0.82504964   0.21255822   0.23286877   0.42349221 
 1536000     301.3539    302.06904   -29.754241   -183001.07    805.85982   -182195.21    165017.36    0.8246563   0.21248862    0.2332329   0.42345927 
 1538000    303.00058    303.76569   0.67111473   -183005.52    810.38615   -182195.14    164872.77    0.8236863   0.21307685   0.23294314   0.42323543 
 1540000     304.4412    304.30469   -251.97205   -183007.03     811.8241   -182195.21    164992.61   0.82297541   0.21254817   0.23255165   0.42269174 
 1542000    305.85467    305.49477   -90.712939    -183010.4    814.99897    -182195.4    165318.64   0.82287162   0.21253738   0.23295809   0.42278903 
 1544000    304.84808    303.59972   -55.132929    -183005.2    809.94337   -182195.25    165358.14   0.82279951   0.21212883   0.23270355   0.42254396 
 1546000    304.52076    304.07713   -106.47633   -183006.57      811.217   -182195.36    165371.08   0.82223706   0.21144996   0.23265654   0.42211452 
 1548000    305.66878    304.74367    49.201896   -183008.17    812.99521   -182195.18    165665.61   0.82137815   0.21108078   0.23234892   0.42160261 
 1550000    302.04567    302.76345    88.966944   -183003.06    807.71237   -182195.35    166071.32   0.82114339    0.2109182   0.23274963   0.42160374 
 1552000    307.24639     306.7127   -118.55973   -183013.52    818.24819   -182195.27    165706.04   0.82112277   0.21080584    0.2329813   0.42163664 
 1554000     305.0384    304.59402   -62.882198   -183007.89    812.59597   -182195.29    164155.34   0.82082385   0.21114522   0.23275927   0.42157611 
 1556000    307.48314    304.70805    -206.3144   -183008.08    812.90018   -182195.18    163555.71   0.82034402   0.21284187   0.23236998   0.42185196 
 1558000    304.55028    304.84897    26.580587   -183008.55    813.27613   -182195.27    163500.62   0.82315098   0.21221741   0.23197846   0.42244895 
 1560000    302.53917    303.00484   -84.120415   -183003.63    808.35636   -182195.27    164139.52   0.82750349   0.21204806   0.23167503   0.42374219 
 1562000     303.5335    303.88539   -39.662327   -183005.92    810.70548   -182195.21    164512.85   0.82681866   0.21189482   0.23132097   0.42334482 
 1564000    304.17486    305.51673   -38.230762   -183010.22    815.05758   -182195.17    164908.71   0.82590676   0.21226185   0.23101327   0.42306062 
 1566000    301.69784    303.37418   -167.35864   -183004.42    809.34169   -182195.08    164825.36   0.82574815   0.21200755   0.23082025   0.42285865 
 1568000    302.54368    304.61864    53.325614   -183007.72    812.66166   -182195.06    163778.23   0.82471384   0.21234308   0.23050368    0.4225202 
 1570000    305.23487    306.31591    79.139599    -183012.1    817.18962   -182194.91    163513.67   0.82380054   0.21167148   0.23008527   0.42185243 
 1572000     304.6306    303.79156   -19.097478   -183005.49    810.45517   -182195.03    163368.22   0.82360709   0.21213672   0.22994786   0.42189722 
 1574000    303.20969    302.69467   -252.02522   -183002.52    807.52888   -182194.99    164356.76   0.82240749   0.21319834   0.22959732   0.42173438 
 1576000    303.46547     304.3829   -71.629564   -183007.02    812.03275   -182194.99    165497.84   0.82258118   0.21300708   0.22953556   0.42170794 
 1578000    304.93702    306.24428    -136.2721   -183012.06    816.99852   -182195.06    166354.97   0.82592699   0.21269353   0.22936663   0.42266238 
 1580000    306.29072    305.71656   -118.84091   -183010.63    815.59067   -182195.04    166298.34   0.82647108   0.21262484   0.22910535   0.42273376 
 1582000    305.15922    304.88207   -273.72209   -183008.33    813.36443   -182194.96    165914.24   0.82621611   0.21252046   0.22884662   0.42252773 
 1584000    302.72683    303.98526    117.08672   -183005.98     810.9719   -182195.01    165489.18   0.82539486   0.21235645    0.2285382    0.4220965 
 1586000    304.19494    304.49397   -95.040188   -183007.14    812.32906   -182194.81    165564.92   0.82475183   0.21202532   0.22860991   0.42179569 
 1588000    305.52127    303.70596   -237.66713   -183005.22     810.2268   -182194.99     165749.6   0.82425375   0.21241375   0.22835174   0.42167308 
 1590000    305.64052    304.13486   -20.328865   -183006.37    811.37103      -182195    165629.27   0.82374725   0.21236068   0.22816721   0.42142505 
 1592000    304.46303    304.12709   -76.355847   -183006.42     811.3503   -182195.07    165190.75   0.82287625   0.21232549   0.22898582   0.42139586 
 1594000     304.5666    304.97078    84.984939   -183008.69     813.6011   -182195.08    164493.05   0.82310435   0.21238799   0.22950429   0.42166554 
 1596000    301.99664    302.51226    -33.76028   -183001.86    807.04225   -182194.82    164392.97   0.82306825   0.21263313    0.2292107   0.42163736 
 1598000    302.91247     304.7306   -13.539703   -183007.98    812.96034   -182195.02    164473.83   0.82231253   0.21226654     0.229039   0.42120602 
 1600000    302.58748    303.30802   -192.69341   -183004.02    809.16519   -182194.85     164093.5   0.82198686   0.21238171   0.22878219   0.42105025 
 1602000    305.02951    305.02614    -39.87415   -183008.67    813.74878   -182194.92    164348.67   0.82256945   0.21313632   0.22860202   0.42143593 
 1604000    308.79764    306.65026   -213.20609   -183013.01    818.08159   -182194.93    165839.75   0.82217937   0.21292442   0.22829008   0.42113129 
 1606000    303.22658    304.59027   -133.20289   -183007.39    812.58595   -182194.81    167111.29   0.82115588   0.21287639   0.22809866   0.42071031 
 1608000    304.19256    302.72635   -137.92081    -183002.6     807.6134   -182194.98    167338.26   0.82023111   0.21271658   0.22809657   0.42034809 
 1610000    304.12897    301.89274   -19.591992   -183000.33    805.38948   -182194.94    166435.85   0.82052148   0.21316861   0.22768516   0.42045842 
 1612000    305.86445    305.38044   -120.48137   -183009.71    814.69399   -182195.02    166175.58   0.82174827   0.21286087   0.22738874   0.42066596 
 1614000      305.916    304.24892    81.977259   -183006.57    811.67531    -182194.9    166547.52   0.82176843   0.21269063   0.22707124    0.4205101 
 1616000    306.09582    305.11451     -276.287   -183008.93    813.98453   -182194.95    166425.98   0.82084603   0.21251389   0.22695803   0.42010599 
 1618000    300.14841    302.24817   -12.751788   -183001.33    806.33772      -182195    165534.21    0.8201527   0.21240928   0.22662183   0.41972793 
 1620000    304.46081    305.83072    163.37716   -183010.91    815.89524   -182195.02    165363.15   0.81961287   0.21243691   0.22648193   0.41951057 
 1622000    303.71278    305.14968     -154.178   -183009.07    814.07836   -182194.99    165740.65   0.81921465   0.21227952   0.22638698   0.41929371 
 1624000     306.0115    305.60006    173.52938   -183010.12    815.27989   -182194.84    165464.82   0.81808405   0.21161157   0.22617864   0.41862475 
 1626000     305.4738    304.57591   -229.50013   -183007.45    812.54764    -182194.9    165597.91   0.81922319   0.21204892   0.22611435   0.41912882 
 1628000    304.66025    304.82207   -8.4562033   -183008.17    813.20435   -182194.96    165389.16   0.82112388   0.21145162   0.22575586   0.41944379 
 1630000    303.27835    303.73533   -166.13791   -183005.25    810.30515   -182194.95    165690.21   0.82051449   0.21171241   0.22562087   0.41928259 
 1632000    306.40521    306.24655   -25.784849   -183011.81    817.00459   -182194.81    166695.57   0.81977062   0.21252773   0.22538465   0.41922767 
 1634000    306.53304    304.70543    58.174819    -183007.9    812.89318   -182195.01    167142.09    0.8188432   0.21295255    0.2256333   0.41914302 
 1636000    301.59648    305.28428    -222.9922   -183009.33    814.43743   -182194.89    167058.98    0.8182232   0.21270066   0.22529655   0.41874014 
 1638000    305.92846    304.73019   -290.60914   -183007.91    812.95925   -182194.95    166308.99   0.81714312   0.21231945    0.2253046   0.41825572 
 1640000    304.94534    303.80115    200.93664   -183005.47    810.48074   -182194.99    165214.15   0.81604227   0.21213243   0.22680416   0.41832629 
 1642000    305.40311    304.90322   -72.867258   -183008.21    813.42086   -182194.79    164543.24   0.81505867   0.21186739   0.22758981   0.41817195 
 1644000    305.96169    305.41321    -143.9992    -183009.6    814.78139   -182194.82    164417.96   0.81405893   0.21327628   0.22779435   0.41837652 
 1646000    305.35899    303.68526   -110.52215   -183005.03    810.17157   -182194.86    164926.88   0.81315568   0.21322577   0.22745667   0.41794604 
 1648000    305.36792    304.32202   -230.95688   -183006.62    811.87034   -182194.75    166201.57   0.81237869   0.21298286   0.22715027   0.41750394 
 1650000    303.42448     304.3846   -82.784385   -183006.92    812.03727   -182194.89    166712.94   0.81248766   0.21270755   0.22691993   0.41737171 
 1652000    303.86598    302.80275   -201.07541   -183002.75    807.81721   -182194.93     166647.1   0.81332163   0.21258469   0.22673084   0.41754572 
 1654000    303.56675    304.09624   -12.475957   -183006.18    811.26799   -182194.92    166269.68   0.81275207   0.21224171   0.22692881   0.41730753 
 1656000    303.50325    303.10194   -49.741506   -183003.46     808.6154   -182194.84    166071.89   0.81287941   0.21193733   0.22725498   0.41735724 
 1658000    303.72693    304.49775   -77.892638   -183007.13    812.33915   -182194.79    165531.55   0.81218023   0.21181336   0.22677973   0.41692444 
 1660000    305.57935    306.24481   -69.301886   -183011.94    816.99995   -182194.94    165513.86   0.81139192   0.21169086   0.22667169   0.41658482 
 1662000    305.18758    305.39212    50.347437   -183009.62    814.72514   -182194.89    165268.19   0.81360195   0.21227187   0.22658221   0.41748534 
 1664000    305.01623    303.02335   -152.22702   -183003.37    808.40574   -182194.97    164883.27   0.81307966   0.21188772   0.22665443   0.41720727 
 1666000    303.50693    304.41566   -124.96275   -183006.98    812.12013   -182194.86    164388.62   0.81383063   0.21157883   0.22648311   0.41729752 
 1668000    305.70139    304.50989   -199.87047   -183007.28    812.37153   -182194.91    164296.78   0.81546543   0.21160973   0.22614112   0.41773876 
 1670000    303.11452    303.60909   -34.321833   -183004.66    809.96836   -182194.69    164717.34   0.81539857   0.21304588   0.22596233   0.41813559 
 1672000    304.71483    303.95736    -17.22974   -183005.71     810.8975   -182194.81    165621.49   0.81619267   0.21280453   0.22594867   0.41831529 
 1674000    306.52685    304.84588   -251.17801   -183007.96    813.26788   -182194.69    166214.23   0.81691217   0.21253303   0.22561888   0.41835469 
 1676000    306.61651    305.05229   -50.948779   -183008.53    813.81855   -182194.71    166340.77   0.81658519   0.21247433   0.22534047   0.41813333 
 1678000    307.29223    305.92471   -238.73129   -183011.02    816.14599   -182194.87    166384.75   0.81597423   0.21240475   0.22504876   0.41780925 
 1680000     304.2911    303.11678   -256.09417    -183003.5    808.65499   -182194.84    165736.29   0.81542639   0.21224762   0.22571343   0.41779581 
 1682000    306.68749    304.94224    189.78027   -183008.35    813.52495   -182194.82    165179.59   0.81552192   0.21220124   0.22568554    0.4178029 
 1684000    306.85956    305.67388   -198.95986   -183010.28    815.47681    -182194.8    164426.34    0.8149017   0.21221363    0.2252922   0.41746918 
 1686000    305.62359    306.47643   -80.347607   -183012.41    817.61786   -182194.79    164067.82   0.81376552   0.21208028   0.22505904   0.41696828 
 1688000    305.15324    305.45643   -317.74983   -183009.62    814.89669   -182194.72    163136.77   0.81363169   0.21195202   0.22473485   0.41677286 
 1690000    306.57779    305.33219   -53.714427   -183009.26    814.56526    -182194.7    163225.94   0.81319842   0.21193948   0.22442713   0.41652168 
 1692000    308.30557    306.82985   -50.030224   -183013.28    818.56071   -182194.72    163565.28   0.81225493   0.21177274    0.2242197   0.41608246 
 1694000    303.90882    303.65102   -98.252496   -183004.84    810.08024   -182194.76    163477.48   0.81151978   0.21160194     0.224165   0.41576224 
 1696000    306.26328    304.84388   -177.52951   -183008.03    813.26254   -182194.77    163891.95   0.81142833   0.21165779   0.22385347   0.41564653 
 1698000    309.76475    308.13561   -140.68632   -183016.94    822.04423    -182194.9     164072.6   0.81027127   0.21200962   0.22498076   0.41575388 
 1700000    307.40636    307.10526   -102.08024   -183014.14    819.29545   -182194.84    164874.62   0.80959769   0.21217822   0.22539627   0.41572406 
 1702000    308.31677    308.59682    46.256459   -183018.04    823.27464   -182194.77     165837.5   0.80910121   0.21254308   0.22504192   0.41556207 
 1704000    308.57193    306.36016   -134.47001   -183012.14    817.30768   -182194.83    166275.66   0.80889799   0.21238708   0.22502869   0.41543792 
 1706000    307.17254    305.53531   -59.910671   -183009.88    815.10713   -182194.78    166617.97   0.80876727   0.21216913   0.22562185   0.41551942 
 1708000    303.54308    305.16503   -161.82253   -183008.77    814.11931   -182194.65    166244.37   0.80803363   0.21207496   0.22507629   0.41506162 
 1710000    303.78492    304.99889   -211.54519   -183008.41    813.67608   -182194.73    165792.42   0.80826978   0.21177057   0.22535414    0.4151315 
 1712000    306.43991    305.66449   -74.627191   -183010.27    815.45176   -182194.82    165384.22   0.80714777   0.21155743   0.22654383   0.41508301 
 1714000    304.69278    305.60583    -117.5836   -183010.22    815.29526   -182194.93    165070.11   0.80641619   0.21166215   0.22598683   0.41468839 
 1716000    305.00638    304.08242   -176.78516   -183006.06    811.23113   -182194.83    165291.88   0.80603248   0.21135314   0.22581841   0.41440134 
 1718000    304.47558    305.52818   -454.05211   -183009.75    815.08813   -182194.67    165658.87   0.80581669   0.21134983   0.22558876   0.41425176 
 1720000    304.40098    305.74895    87.138965   -183010.42    815.67709   -182194.74    165526.77   0.80510479   0.21100955   0.22549289   0.41386908 
 1722000     306.8669     304.2527   -280.81729   -183006.48     811.6854   -182194.79    165130.52   0.80455812    0.2108581    0.2254302   0.41361547 
 1724000     304.6269     305.1314    18.937152   -183008.76     814.0296   -182194.73    165277.42   0.80505794   0.21056944   0.22578777   0.41380505 
 1726000     303.9161    304.87967   -4.4701638   -183008.15    813.35802    -182194.8    165173.94   0.80593126   0.21044305   0.22543072   0.41393501 
 1728000    303.93582    304.53082   -181.87904   -183007.04    812.42736   -182194.61    164456.03   0.80528725      0.21023   0.22518779   0.41356835 
 1730000    305.38805    305.77557   -220.79342   -183010.48    815.74812   -182194.73    164053.62   0.80429676   0.21172307   0.22499536   0.41367173 
 1732000    307.65305    305.75591   -227.14814   -183010.45    815.69567   -182194.75     163743.6   0.80326086   0.21087346   0.22534594   0.41316009 
 1734000    305.68074    304.71019   -218.23325   -183007.63    812.90588   -182194.73    164007.42    0.8022972   0.21087022   0.22522642   0.41279795 
 1736000    304.09142    304.85175   -53.495827   -183008.01    813.28354   -182194.73    164495.39   0.80154387   0.21080782   0.22524467   0.41253212 
 1738000    302.94966    304.67345   -16.428494   -183007.41    812.80787   -182194.61     164256.8   0.80143244   0.21092278   0.22526922   0.41254148 
 1740000    303.60398    303.45297    37.892406   -183004.13    809.55188   -182194.58    163651.36   0.80132788   0.21186535   0.22537364   0.41285562 
 1742000    303.86893    303.13661    71.097129   -183003.29    808.70788   -182194.58    163087.36   0.80070161   0.21192068   0.22535033   0.41265754 
 1744000    305.43411    305.61787    1.5322384   -183010.02    815.32741   -182194.69     163469.3   0.80067105   0.21170378   0.22536893   0.41258125 
 1746000    306.21563    304.72352   -56.989501   -183007.67    812.94145   -182194.73    164721.38   0.80110859   0.21125234   0.22507674   0.41247923 
 1748000    306.86417    305.31184    62.419256   -183009.15    814.51096   -182194.64    166235.05   0.80107949    0.2114266   0.22454848   0.41235152 
 1750000    305.68842    304.20233   -260.96028   -183006.21    811.55103   -182194.66     167090.1   0.80011418    0.2123966   0.22451133   0.41234071 
 1752000    307.54182    306.57134   -457.50051   -183012.42    817.87105   -182194.55     166888.1   0.79940206   0.21230932   0.22464097   0.41211745 
 1754000    306.49144    305.15912   -100.76733   -183008.59    814.10353   -182194.49    165292.89   0.79971859   0.21234387   0.22439009   0.41215085 
 1756000    304.52798    304.47019    132.16719   -183007.04    812.26561   -182194.77     164521.9    0.7996728     0.211889   0.22426735   0.41194305 
 1758000    303.10145    304.82296   -181.87468   -183007.78    813.20672   -182194.57    163999.39   0.80006582   0.21191582   0.22437742   0.41211969 
 1760000    305.88003    305.99962  -0.88821389   -183010.91    816.34582   -182194.56    164381.05   0.80069078   0.21160813   0.22392583   0.41207491 
 1762000    301.90678    303.36695   -29.239408   -183003.83    809.32239    -182194.5    164727.39   0.80144235   0.21129506   0.22364717    0.4121282 
 1764000    304.95934    306.09405   -90.511696   -183011.25    816.59774   -182194.65    163874.53   0.80133545   0.21113762   0.22338624    0.4119531 
 1766000    304.76435    305.39888   -12.931495   -183009.32    814.74317   -182194.57    163595.29   0.80111281   0.21079606   0.22305882    0.4116559 
 1768000    303.26516    304.38632   -85.361743   -183006.44    812.04187    -182194.4     164096.9   0.80046338   0.21078348   0.22303917   0.41142868 
 1770000    303.84699    306.38338   -213.21086   -183012.04    817.36963   -182194.67    165112.21    0.8019236   0.21175456   0.22257022    0.4120828 
 1772000    302.49016    304.42668    145.27165   -183006.56    812.14953   -182194.41    166156.29   0.80209784   0.21150132   0.22251192   0.41203703 
 1774000    299.57511    302.54396   -186.60177   -183001.52    807.12683   -182194.39    166865.25   0.80113939   0.21131581   0.22425174   0.41223565 
 1776000     302.2989    303.17329   -239.57239   -183003.23    808.80575   -182194.43    166395.13   0.80023932   0.21125272    0.2233332   0.41160841 
 1778000    305.57216    305.81174   -115.62186   -183010.33    815.84461   -182194.49    165825.44   0.79993771   0.21144856   0.22326822    0.4115515 
 1780000     308.1038    305.79077   -110.27765   -183010.28    815.78865   -182194.49    165652.09   0.80051891    0.2113485   0.22322336   0.41169692 
 1782000    308.44743    306.71866    -161.0131   -183012.81    818.26409   -182194.54    165121.92   0.80052976   0.21139507   0.22327292   0.41173258 
 1784000    301.69887    303.93541   -59.326822   -183005.43    810.83893   -182194.59    164476.59   0.80012685   0.21133365   0.22340068   0.41162039 
 1786000    308.05476    305.63124   -166.14158   -183009.95    815.36307   -182194.58    163883.46    0.8006791   0.21102418   0.22338187   0.41169505 
 1788000    305.76142    306.33789   -4.0641306   -183011.76    817.24827   -182194.51       163428   0.80123553   0.21062336   0.22318843   0.41168244 
 1790000    307.69833    306.70576   -137.17549   -183012.74    818.22965   -182194.51    163355.78   0.80104275   0.21054695   0.22308101    0.4115569 
 1792000    309.02104    306.07447    81.372797      -183011     816.5455   -182194.46       164170   0.80052666   0.21057885   0.22305827   0.41138793 
 1794000     306.3764    305.92252     118.2901   -183010.74    816.14014    -182194.6     165222.9    0.8001651   0.21051692   0.22280976   0.41116393 
 1796000    303.43363     304.1591   -361.43903   -183005.89     811.4357   -182194.46     166573.9   0.80036067     0.210542   0.22313526   0.41134598 
 1798000    302.35173     302.9674    63.469429   -183002.76    808.25646   -182194.51    167469.56   0.80071689   0.21049719   0.22231678   0.41117695 
 1800000    301.23447      303.327   -5.0472147   -183003.43     809.2158   -182194.22    167363.55   0.79985234   0.21042591    0.2220546   0.41077762 
 1802000    303.65463    305.58485    152.10719   -183009.81    815.23931   -182194.58    166291.06   0.79888919   0.21017923   0.22287273   0.41064705 
 1804000     303.7502    305.09649   -147.41876   -183008.35    813.93646   -182194.41    165361.24   0.79820051   0.20999789    0.2229855   0.41039463 
 1806000    304.65954    305.27307    34.795028   -183008.84    814.40753   -182194.43    165122.82   0.79808935   0.20964621   0.22276065   0.41016541 
 1808000    303.78935    304.28594   -102.78884   -183006.27    811.77408    -182194.5    165144.66   0.79735138   0.20971587   0.22289136    0.4099862 
 1810000    303.04325    305.00898    18.456432   -183008.08    813.70299   -182194.38    165028.59   0.79701815   0.20920035   0.22271935   0.40964595 
 1812000    305.51073    304.61432   -28.068645   -183007.19    812.65013   -182194.54     164839.8   0.79716406   0.20919864   0.22275843   0.40970704 
 1814000    307.42503    305.82327   -23.335402   -183010.37    815.87535    -182194.5    164600.52   0.79687612   0.20984464   0.22230258   0.40967445 
 1816000    303.12276    304.39955     237.7513   -183006.48    812.07715   -182194.41    164223.01   0.79593119   0.21019741   0.22238978   0.40950612 
 1818000     304.8319    306.02408   -14.587854   -183010.86    816.41107   -182194.45     163697.4   0.79514303   0.20986114   0.22241951   0.40914122 
 1820000    304.61242    305.43184    1.9401873   -183009.23    814.83109    -182194.4    163218.61   0.79504363   0.20966418   0.22235564   0.40902115 
 1822000    304.23234    307.03635   -95.343407   -183013.33    819.11162   -182194.22    164248.97   0.79452109   0.20967211   0.22226197   0.40881839 
 1824000    301.76894    304.01442   -119.82134   -183005.38    811.04972   -182194.33    165224.13   0.79459134   0.20953758   0.22267392   0.40893428 
 1826000    303.69509    305.39814   -94.942367   -183009.08    814.74119   -182194.33    165755.42   0.79411375   0.20942712   0.22372539   0.40908875 
 1828000    303.49022    304.69788    66.290669   -183007.18    812.87305   -182194.31    166432.11   0.79318189   0.20953995   0.22342942   0.40871709 
 1830000    304.27667    306.62073   -54.731157   -183012.39    818.00283   -182194.38    166572.39   0.79238421   0.21030198   0.22315372    0.4086133 
 1832000    306.13406    306.88872    204.16369   -183013.04    818.71777   -182194.32     166438.4   0.79156032   0.21008379   0.22276768   0.40813726 
 1834000    303.78287    304.16853   -168.73746   -183005.72    811.46085   -182194.26    166162.25   0.79253187   0.21027758   0.22296078   0.40859008 
 1836000    301.36093    303.07758    97.061793   -183002.87    808.55041   -182194.32     165792.6   0.79410307   0.21019832   0.22436874   0.40955671 
 1838000    301.82742    303.91567   -81.467835   -183005.09    810.78627    -182194.3    164774.64   0.79421461   0.21006503   0.22468786   0.40965583 
 1840000    307.34421    305.06811    32.944907   -183008.24    813.86076   -182194.38    163574.62   0.79674686   0.20962952   0.22507433   0.41048357 
 1842000    305.32306    304.66176   -57.948742   -183006.99    812.77667   -182194.21    163139.71   0.79772572   0.21035934   0.22683693   0.41164066 
 1844000    305.16164    304.64451   -26.395482   -183006.99    812.73065   -182194.26    162863.22   0.79973507   0.21038921   0.22703499   0.41238642 
 1846000    305.01662    305.80147   -20.522002   -183010.02    815.81722    -182194.2    163360.53   0.80041839    0.2101244   0.22701128   0.41251803 
 1848000    306.63032    306.79288   -153.85467   -183012.81     818.4621   -182194.35    164746.92   0.79937375   0.20998009   0.22694586    0.4120999 
 1850000    302.51242    306.01864    25.347727   -183010.65    816.39656   -182194.25    166212.75   0.79852359   0.21063232   0.22703967    0.4120652 
 1852000    302.27499    304.53592    98.367161   -183006.64    812.44096    -182194.2    166792.53   0.79794306   0.20987526   0.22730008   0.41170613 
 1854000     303.1579    304.72867   -252.45806   -183007.32     812.9552   -182194.36    166077.51   0.79716801   0.20999945   0.22723616   0.41146787 
 1856000    301.76425    303.48477   -110.40991   -183003.86    809.63671   -182194.23    165014.12   0.79744242   0.21160906   0.22714649   0.41206599 
 1858000    306.05859    305.86947   -76.780608   -183010.31     815.9986   -182194.31    164133.67    0.8005065   0.21117667   0.22691241   0.41286519 
 1860000    304.81574    306.03094   -149.44505    -183010.7    816.42939   -182194.27    163608.59   0.80028898   0.21091886   0.22672283   0.41264355 
 1862000    303.03226    306.02602   0.45782189   -183010.78    816.41625   -182194.37    164243.89   0.79950256   0.21121139   0.22680162   0.41250519 
 1864000     302.5972    302.86527   -150.27196    -183002.2    807.98402   -182194.22    165111.09   0.79913898   0.21132164   0.22658706   0.41234922 
 1866000     306.3523     305.1379   -129.16432   -183008.35    814.04693   -182194.31    165751.87    0.8009555   0.21114069   0.22647534   0.41285718 
 1868000    306.93315    306.20902   -132.50329   -183011.19    816.90446   -182194.28    165573.24   0.80077494   0.21098588   0.22645518   0.41273866 
 1870000    302.19153     304.2737   -59.812599   -183005.97    811.74142   -182194.23    165505.49   0.80132241   0.21072398    0.2266858   0.41291073 
 1872000    303.79822    304.14331    -184.1284   -183005.52    811.39357   -182194.13     165939.6    0.8020285   0.21066446   0.22712383   0.41327226 
 1874000    303.14621    304.15128   -296.97703   -183005.58    811.41483   -182194.16    166338.32   0.80467183    0.2103573   0.22680954   0.41394622 
 1876000     304.5321    304.86936   -217.95821   -183007.58    813.33052   -182194.25    165966.15   0.80496949   0.21032992   0.22671138    0.4140036 
 1878000    302.74718    303.57313   -40.406088   -183003.97    809.87244    -182194.1    166234.36   0.80521434   0.21011474   0.22694755   0.41409221 
 1880000    303.54003    306.55375   -180.60878   -183011.97    817.82415   -182194.15    166186.89   0.80506066   0.21252616   0.22738018     0.414989 
 1882000    302.27072    302.81306   -137.40983   -183002.01    807.84473   -182194.17    166068.12   0.80513951   0.21545191    0.2272331   0.41594151 
 1884000     302.7931    304.92881   -118.29695   -183007.59    813.48913    -182194.1    166018.36     0.804417   0.21551667    0.2270501   0.41566126 
 1886000    304.51873    305.53731   -11.830675   -183009.23    815.11249   -182194.12    166340.46   0.80414813   0.21542782   0.22769099   0.41575565 
 1888000    301.25169     304.6245   -155.24702    -183006.7    812.67728   -182194.02    166314.61   0.80337725   0.21508326   0.22732265   0.41526105 
 1890000    304.49946    306.62738   -145.89996   -183012.21    818.02056   -182194.19    165965.72   0.80269224   0.21513056   0.22708807   0.41497029 
 1892000    302.08147    304.01298   -88.054689   -183005.25    811.04587    -182194.2    165504.25   0.80267934   0.21515514   0.22692704   0.41492051 
 1894000    300.71908    302.07653   -83.734546   -182999.94    805.87982   -182194.06     165646.1   0.80298028   0.21513584   0.22674996   0.41495536 
 1896000    302.75391    304.01599   -61.944822   -183005.09    811.05389   -182194.04    165879.66   0.80313294   0.21530137    0.2268981    0.4151108 
 1898000    304.50262    305.75567   -25.272974   -183009.78    815.69502   -182194.09    165766.65   0.80279387   0.21528222   0.22679812   0.41495807 
 1900000     304.1449    305.51354   -165.39108   -183009.07    815.04905   -182194.02    166173.86   0.80196944   0.21519386   0.22671524   0.41462618 
 1902000    303.79756    304.56735   -169.98211   -183006.53    812.52481   -182194.01    166120.06   0.80366227   0.21483533   0.22649825   0.41499862 
 1904000    305.77396    305.72151   -122.36455   -183009.52    815.60389   -182193.92    165665.53   0.80293046   0.21459076    0.2270462    0.4148558 
 1906000    301.27022    303.70455    123.07168   -183004.18    810.22305   -182193.95    164471.51   0.80264938    0.2144391   0.22649783   0.41452877 
 1908000    304.61235    303.84564   -66.528703   -183004.58    810.59945   -182193.98    163877.94   0.80194377    0.2142675   0.22643987   0.41421705 
 1910000     305.7331     305.2598   -61.768554   -183008.45    814.37214   -182194.08    163732.19   0.80163399   0.21408139   0.22647917   0.41406485 
 1912000    306.36425     304.3396   -53.046852   -183005.94    811.91721   -182194.02    163927.26   0.80132524   0.21453191   0.22591546    0.4139242 
 1914000    306.36748    306.14679    67.744259   -183010.68    816.73845   -182193.94    165026.35   0.80151414   0.21395332   0.22587473   0.41378073 
 1916000    305.07085    305.06341    75.012751   -183007.82    813.84822   -182193.97    166442.56   0.80145773   0.21369064   0.22552355   0.41355731 
 1918000    304.92969    304.52542    27.807498   -183006.42    812.41296      -182194    167099.33   0.80221029   0.21363649   0.22545234   0.41376637 
 1920000    307.31521    305.27548   -9.6229458   -183008.25    814.41398   -182193.83    167605.03   0.80132885   0.21347404   0.22515464   0.41331918 
 1922000    307.08466    305.53528   -193.88951   -183009.33    815.10707   -182194.22    166652.25   0.80054014   0.21334475   0.22532692    0.4130706 
 1924000    307.23009    305.33571   -186.61735   -183008.65    814.57465   -182194.08    165134.68   0.80030397   0.21300784   0.22559987   0.41297056 
 1926000     305.7778    303.45717   -289.49533   -183003.66    809.56309   -182194.09    164400.69   0.80166477    0.2128653   0.22566696   0.41339901 
 1928000    307.49401    305.88051    -256.9822   -183010.05    816.02808   -182194.02     164687.4   0.80161424   0.21273699   0.22558356    0.4133116 
 1930000    309.40836    305.47046   -49.729977   -183009.03    814.93413   -182194.09    164976.76   0.80119823   0.21255107   0.22540184   0.41305038 
 1932000    308.33291    307.57266   -232.95748   -183014.58    820.54238   -182194.04    165018.97   0.80040949   0.21244406    0.2248759   0.41257648 
 1934000    308.19627    306.24374   -6.3405977   -183011.17    816.99709   -182194.17    165264.12   0.79985462    0.2122328   0.22466838   0.41225193 
 1936000    307.95739    305.34375   -99.556252   -183008.55     814.5961   -182193.95    166062.73   0.79929297   0.21222341   0.22444317   0.41198652 
 1938000     303.5909    303.28741   -163.95037   -183003.04     809.1102   -182193.93    166365.56   0.79890212   0.21199966   0.22421672   0.41170617 
 1940000    305.60665    304.25813   -331.46441   -183005.58    811.69987   -182193.88    166520.68   0.79814854   0.21192368    0.2240385   0.41137024 
 1942000    306.81942    306.29101   -259.44838   -183011.15    817.12321   -182194.02     166693.6   0.79759891   0.21236646   0.22499278   0.41165272 
 1944000    308.94041     304.0542   -44.718824   -183005.04    811.15584   -182193.88    166728.27   0.79689673   0.21236518   0.22452413   0.41126201 
 1946000    307.23475    305.15887   -121.44162    -183008.1    814.10287      -182194    166058.98   0.79631178   0.21235456    0.2242115   0.41095928 
 1948000    305.79269    302.90546    96.058992   -183001.99    808.09123    -182193.9     165495.1   0.79829103   0.21273178   0.22377109   0.41159797 
 1950000    308.00819    305.68134   -39.610975   -183009.41    815.49672   -182193.91    164825.16   0.79759122    0.2124219    0.2235995    0.4112042 
 1952000    308.12427     305.5254    38.407905   -183008.98     815.0807    -182193.9    164978.62   0.79720976   0.21219103   0.22348193    0.4109609 
 1954000    307.42372    304.74258     -198.413   -183007.03    812.99228   -182194.03    165141.64    0.7966396   0.21243141   0.22327294   0.41078132 
 1956000    305.97731    304.35974   -76.888492   -183005.87    811.97094    -182193.9    166288.06    0.7958551   0.21202278   0.22295781   0.41027857 
 1958000    303.78122    303.79396   -110.81306   -183004.14    810.46157   -182193.68    167375.26   0.79528503   0.21312266   0.22251319   0.41030696 
 1960000    308.18386    305.68063   -153.79653   -183009.26    815.49482   -182193.77    167876.08   0.79616573   0.21288248   0.22214576   0.41039799 
 1962000    302.08253    302.50361    -91.70032   -183000.71    807.01918   -182193.69       168252   0.79522412   0.21276378   0.22227742   0.41008844 
 1964000    304.62623     304.3452   -19.434355   -183005.69    811.93217   -182193.75    168156.47   0.79434097   0.21255634   0.22194729   0.40961487 
 1966000    305.40302    304.18777   -139.43212    -183005.2    811.51219   -182193.69     166880.2   0.79425928   0.21240899   0.22271316   0.40979381 
 1968000    305.94699    304.80824   -32.291989   -183006.83    813.16747   -182193.66    165711.28   0.79410578   0.21237963   0.22212993   0.40953845 
 1970000    307.98196    304.57451    -60.17356   -183006.31    812.54392   -182193.76    164398.89    0.7936978   0.21312233   0.22181833   0.40954615 
 1972000    306.24565    304.90148    58.182984   -183007.11    813.41622   -182193.69       163828   0.79353228    0.2134309   0.22162251   0.40952856 
 1974000    306.49116    304.76691   -162.54457   -183006.85     813.0572   -182193.79    164526.01    0.7933382   0.21315282   0.22202206   0.40950436 
 1976000    305.51061    304.94103    117.00406   -183007.47    813.52173   -182193.95    164876.77   0.79323391   0.21297601   0.22202579    0.4094119 
 1978000    303.94942    304.14802   -385.74036   -183005.03    811.40614   -182193.63    164702.78   0.79271946   0.21284813   0.22177347   0.40911369 
 1980000    304.57385    304.90541   -178.55619   -183007.06    813.42669   -182193.63    164074.28   0.79199798   0.21313061   0.22201261   0.40904707 
 1982000    303.63991    304.03869   -161.33432    -183004.7    811.11446   -182193.59     163667.9   0.79135035   0.21306695   0.22180464   0.40874065 
 1984000    307.02073    304.89453    1.9271318   -183007.08    813.39767   -182193.68    164189.57   0.79063358   0.21334197   0.22241616   0.40879724 
 1986000    304.63507     306.1262    100.65865   -183010.43    816.68352   -182193.75    165105.95     0.790621   0.21382552   0.22209265   0.40884639 
 1988000    304.59353    306.13269   -32.070342   -183010.27    816.70083   -182193.57    165706.92   0.79020453   0.21421376   0.22297784   0.40913204 
 1990000    303.57129    304.38283   0.33255958   -183005.51    812.03256   -182193.48    165794.55   0.78957112   0.21398851   0.22296389   0.40884117 
 1992000    303.81479    304.79834   -72.339206    -183006.6    813.14105   -182193.46    165482.45   0.78890735   0.21378169   0.22284438   0.40851114 
 1994000    306.28403    305.21739   -83.121845   -183007.93    814.25901   -182193.67    165437.06   0.78821906   0.21372205    0.2228584    0.4082665 
 1996000    302.61568    303.89672   -229.72175   -183004.37    810.73572   -182193.63     165891.4   0.78763432   0.21358549    0.2246064   0.40860874 
 1998000    305.81403    305.05599   -41.237543   -183007.45    813.82841   -182193.62     166321.5    0.7879097   0.21356418   0.22416543   0.40854644 
 2000000    306.86143     306.2937     165.9458   -183010.75    817.13036   -182193.62    165754.75   0.78697907   0.21343991    0.2240171   0.40814536 
 2002000    302.06783    302.35078   -271.79181   -183000.23    806.61146   -182193.62    164904.35   0.78607749   0.21320885   0.22373526   0.40767387 
 2004000    303.75758    304.30406   -168.47314    -183005.4    811.82242   -182193.58    163862.24   0.78529578   0.21466114   0.22342404   0.40779365 
 2006000    303.48723    305.33392   -108.46774   -183008.06    814.56989   -182193.49    163296.54   0.78478817   0.21524544   0.22324368   0.40775909 
 2008000    305.92472    306.47467   -74.947243   -183011.19    817.61317   -182193.58    163102.91   0.78473082   0.21483948   0.22346375   0.40767802 
 2010000    304.43791    304.52652    13.097846   -183006.06     812.4159   -182193.64    163425.01   0.78503376   0.21467962    0.2231855   0.40763296 
 2012000    302.83399    304.22247   -260.36927   -183004.89    811.60475   -182193.29     164128.1   0.78496399   0.21528386   0.22279047   0.40767944 
 2014000     302.2727    303.67629   -68.024094   -183003.59    810.14764   -182193.44    165082.16   0.78469269   0.21623838   0.22276496   0.40789867 
 2016000     302.6807    303.60518    156.78024   -183003.43    809.95794   -182193.47    166151.66   0.78389464    0.2163956   0.22255367   0.40761464 
 2018000    305.27523    305.64059    11.523451   -183008.83    815.38801   -182193.44    166575.24   0.78454569   0.21595167   0.22264377   0.40771371 
 2020000    302.24165    303.92858    30.777345   -183004.35    810.82069   -182193.53     166003.8   0.78392035   0.21582184   0.22325717   0.40766645 
 2022000    301.17652    303.17392    -148.1793   -183002.22    808.80743   -182193.41    165645.87   0.78382996   0.21570564   0.22377387   0.40776982 
 2024000    302.49932    303.49091   -130.15014   -183003.21    809.65308   -182193.56    165366.73   0.78302272   0.21673811   0.22407785   0.40794623 
 2026000    304.84359    306.79041   -50.547952   -183011.99    818.45551   -182193.54     165374.2   0.78213111   0.21657846   0.22377883   0.40749613 
 2028000    303.09577    302.86617   -244.70197   -183001.53     807.9864   -182193.54    165328.95   0.78201143   0.21777081    0.2237355   0.40783924 
 2030000    305.42836     305.4765   -152.94144   -183008.46    814.95024   -182193.51    165095.09   0.78228408    0.2176709   0.22343948   0.40779815 
 2032000    305.27821    306.11319    -75.02753   -183010.05    816.64881    -182193.4    165198.52   0.78370445   0.21747942   0.22317176   0.40811855 
 2034000    307.01284    307.04233    73.240161   -183012.64    819.12758   -182193.52    166336.67   0.78328476    0.2185706   0.22345027   0.40843521 
 2036000    302.42967     304.7289   -172.45672   -183006.45    812.95581   -182193.49    167287.12   0.78412359   0.21847881   0.22366271   0.40875504 
 2038000    303.97651    304.25207   -259.14543   -183005.07    811.68373   -182193.39    167515.42   0.78448012     0.218254   0.22334451   0.40869288 
 2040000    304.00976    305.42713   -112.65676   -183008.19    814.81853   -182193.37    166755.03    0.7836561   0.21812985   0.22346182   0.40841592 
 2042000    305.16485    305.40625   -179.75859   -183008.19    814.76284   -182193.43    165196.85   0.78343037   0.21820017   0.22310298   0.40824451 
 2044000    305.00333    305.82394    36.350963   -183009.28    815.87715   -182193.41    163706.24   0.78271364   0.21813395   0.22276907   0.40787222 
 2046000    307.88175    306.19859    129.56481   -183010.36    816.87663   -182193.49    163354.16   0.78441032   0.21798193   0.22306399   0.40848541 
 2048000    306.04069    305.46147    64.911436   -183008.25    814.91016   -182193.34    164243.89   0.78562797    0.2178647   0.22325045   0.40891437 
 2050000      305.095    304.63829   -152.67373   -183006.11    812.71408    -182193.4    165716.66   0.78742642   0.21796862   0.22323388   0.40954297 
 2052000    306.14258    306.14643   -350.42023   -183010.08    816.73749   -182193.34    166777.96   0.79096122   0.21779852   0.22387462   0.41087812 
 2054000    301.91073     303.5185   -90.752875   -183003.06     809.7267   -182193.33    167223.35   0.79110088   0.21759469   0.22399248   0.41089602 
 2056000    304.81007    304.82979    -171.2388   -183006.52    813.22495    -182193.3    166890.52   0.79078355   0.21758896    0.2238488   0.41074044 
 2058000    304.15803    304.31943   -83.241999   -183005.03    811.86342   -182193.17    165702.76   0.79007475   0.21833742   0.22365836   0.41069018 
 2060000    303.35232    305.20035   -78.437129   -183007.57    814.21353   -182193.35    164220.51   0.78931588   0.21833415   0.22356256    0.4104042 
 2062000    302.45886    305.19738   -12.491532   -183007.48    814.20562   -182193.27    162443.23   0.78987641   0.21795222   0.22339033   0.41040632 
 2064000    307.57875    307.17586    1.1211364   -183012.73    819.48379   -182193.25    162141.35   0.78942167   0.21837314   0.22321281   0.41033587 
 2066000     301.7787    304.31924    -183.6922    -183005.1     811.8629   -182193.23    164404.66   0.78896587   0.21862382   0.22305531     0.410215 
 2068000    303.80425    305.51476    60.404518   -183008.15    815.05231    -182193.1    166522.41   0.78941285   0.21852565   0.22280448   0.41024766 
 2070000    305.73115    303.72415    -69.13924   -183003.49    810.27534   -182193.21     167888.7   0.79026164   0.21887922    0.2230316   0.41072415 
 2072000    302.87316    304.57915   -277.12247   -183005.59    812.55629   -182193.03    167889.99   0.78945607   0.21958141   0.22300128   0.41067959 
 2074000    301.65103    302.24122   -138.14376   -182999.49    806.31918   -182193.17    167125.44   0.78903602   0.21976184   0.22269092   0.41049626 
 2076000    304.45802    306.05979   -188.59617    -183009.6    816.50635    -182193.1    165724.23   0.78932827   0.22036184   0.22290296   0.41086436 
 2078000    306.21546    305.52713    69.673945   -183008.17    815.08532   -182193.09    164870.76   0.79101708    0.2196725   0.22261619   0.41110192 
 2080000    303.72868    303.42363    70.682951   -183002.57     809.4736   -182193.09     164407.9   0.79169503   0.21948666   0.22244188   0.41120786 
 2082000    308.27635    307.63435      118.424    -183013.9    820.70696    -182193.2    165481.95   0.79299528    0.2193214   0.22231835   0.41154501 
 2084000    306.79625    306.12755   -118.25029   -183009.91    816.68712   -182193.22     166673.4   0.79236215   0.21905467    0.2220087   0.41114184 
 2086000    304.97352    303.13524   -25.441516   -183001.82    808.70424   -182193.12    167446.16   0.79161835   0.21888802   0.22209106   0.41086581 
 2088000    308.84683    306.48417   -291.79608   -183010.97    817.63852   -182193.33    167128.28   0.79083107   0.21913987   0.22188996    0.4106203 
 2090000    307.74255    306.47046   -160.48888   -183010.96    817.60194   -182193.35    166511.48   0.79160054   0.21955601   0.22175346      0.41097 
 2092000    305.00466    304.36637    143.06131   -183005.19    811.98864    -182193.2    165432.67   0.79160874   0.21949051   0.22255118   0.41121681 
 2094000    308.84215    308.71963   -82.958555   -183016.81    823.60227   -182193.21    164967.75   0.79119969   0.21944511   0.22239481    0.4110132 
 2096000    304.29199    305.18647   -58.588812    -183007.3    814.17651   -182193.13    165072.93   0.79185591   0.21910891   0.22219178    0.4110522 
 2098000    305.51287    306.14846    101.42981   -183009.86     816.7429   -182193.12    165760.19   0.79353957   0.21950622   0.22199184   0.41167921 
 2100000    301.88354    305.06812   -23.956482   -183007.01    813.86078   -182193.15    166084.87   0.79345543   0.21949299   0.22194268   0.41163037 
 2102000    302.56994    306.31129    252.65674   -183010.29    817.17731   -182193.11    165391.24   0.79436269   0.21949793   0.22180659   0.41188907 
 2104000    306.49352    305.66232    125.22832   -183008.75    815.44597    -182193.3    164987.48    0.7949183   0.21953989   0.22140164   0.41195327 
 2106000    304.03019    305.26745   -373.63299    -183007.5    814.39254    -182193.1    165107.79   0.79658343   0.21937581   0.22126527   0.41240817 
 2108000    301.63871    306.32333   -92.339019   -183010.29    817.20942   -182193.08    165374.57   0.79732433    0.2195546   0.22136795   0.41274896 
 2110000    302.78417    305.40987   -107.82688   -183007.84    814.77249   -182193.06    164772.44   0.79753092   0.21934459   0.22121885   0.41269812 
 2112000    304.62176    308.46595    -27.56101   -183015.98    822.92551   -182193.05    163104.55   0.79770791   0.21904864    0.2211706   0.41264238 
 2114000    309.84993    308.26365    161.66644   -183015.51     822.3858   -182193.12    161886.19   0.79766434   0.21871768   0.22115152   0.41251118 
 2116000    302.69855    302.28415    129.36924   -182999.46     806.4337   -182193.03    161359.71   0.79850175   0.21868855   0.22093522   0.41270851 
 2118000    303.38813    306.44592    -104.4184   -183010.66    817.53646   -182193.12    162207.48   0.79846739   0.21844155   0.22071657   0.41254183 
 2120000    306.08909    305.86086    56.560839   -183009.05    815.97565   -182193.07    163443.04   0.79913106   0.21864211   0.22090375   0.41289231 
 2122000    306.28677    305.61234   0.29477351   -183008.49    815.31263   -182193.18    164633.81   0.79892264   0.21808771     0.220854   0.41262145 
 2124000    303.43994    303.97999    68.275422   -183004.05    810.95786   -182193.09    165493.81   0.79840519   0.21797344   0.22086319   0.41241394 
 2126000    305.09044    305.39557   -289.42542   -183007.88    814.73434   -182193.15    165517.63   0.79785603   0.21782906   0.22068979   0.41212496 
 2128000     302.9229    305.37781   -177.24077   -183007.76    814.68697   -182193.08    164588.22   0.79821334    0.2178081   0.22050037   0.41217394 
 2130000    306.47561    305.11433    -194.9339   -183007.11    813.98405   -182193.12    163598.12   0.79779214   0.21771009   0.22024888   0.41191704 
 2132000    306.99874    307.36254    186.73977   -183012.93    819.98182   -182192.95    163668.24   0.79729284   0.21786875   0.22087124   0.41201094 
 2134000     303.2251    304.41744    48.486694   -183005.28    812.12489   -182193.15    164021.05   0.79772908   0.21753369   0.22004691   0.41176989 
 2136000    304.38667    304.41862    20.987048   -183005.24    812.12803   -182193.11    165092.61   0.79904402   0.21741417   0.21988878   0.41211566 
 2138000    307.46509    304.01459   -19.139451    -183004.1    811.05017   -182193.05     165762.3   0.79980741    0.2172862   0.22005725   0.41238362 
 2140000    303.36732    302.14605   -185.51799   -182998.97    806.06528    -182192.9    165811.64   0.79927905   0.21724124   0.21983981   0.41212003 
 2142000    303.98489    303.63019   -103.75938    -183003.1    810.02466   -182193.08    165897.46   0.80146777   0.21697257   0.22000719   0.41281584 
 2144000    305.86686     304.5146   -176.43587   -183005.46    812.38408   -182193.08    166138.18   0.80403779   0.21682289    0.2198378   0.41356616 
 2146000     305.6657    304.90077   -42.140965   -183006.55    813.41431   -182193.14    166143.13   0.80513962   0.21665291   0.21985429   0.41388227 
 2148000       305.47    305.50625   -10.663991   -183008.01    815.02961   -182192.98    165905.43    0.8045506   0.21679444    0.2195532   0.41363274 
 2150000    303.85069    305.21439   -36.563181   -183007.28    814.25098   -182193.03    165964.88   0.80407762   0.21723126   0.21934273   0.41355054 
 2152000    308.85281    308.23629    145.30069   -183015.34    822.31281   -182193.03    165699.83   0.80414548   0.21716298   0.21913456   0.41348101 
 2154000    304.49323    303.51513   0.78552116   -183002.78    809.71769   -182193.06    165599.02   0.80422472   0.21711099   0.21904677   0.41346083 
 2156000    303.94108    306.31548   -183.43615   -183010.25    817.18848   -182193.06    165335.54   0.80503263   0.21678052   0.21896799   0.41359371 
 2158000     304.6986    305.54252   -131.37283   -183008.23    815.12636    -182193.1    165263.36   0.80962044   0.21665994   0.21883979   0.41504006 
 2160000    306.51618    306.07734    85.869236   -183009.66    816.55316   -182193.11    165706.16   0.80987389   0.21641598   0.21905621   0.41511536 
 2162000     303.6926    303.11823   -16.328431   -183001.75    808.65886   -182193.09    165993.56   0.80918786   0.21618154   0.21989439   0.41508793 
 2164000    308.11925    303.56592    -35.40067   -183002.89    809.85321   -182193.04    165958.69   0.80992057    0.2161086   0.21963262    0.4152206 
 2166000    306.53905    305.51604   -231.87849   -183008.06    815.05572      -182193    165849.55   0.81002642   0.21580637   0.21956421   0.41513233 
 2168000    307.99222    306.88737   -127.31527   -183011.69    818.71416   -182192.97    165697.63   0.81016121   0.21572275   0.21975952   0.41521449 
 2170000    306.01828    304.09861    40.718115   -183004.43    811.27431   -182193.15     165870.1   0.80981258   0.21630835   0.21945484   0.41519192 
 2172000    304.99457     304.8914   -109.93047   -183006.46    813.38932   -182193.07    165558.88   0.80974109   0.21628888   0.21909962    0.4150432 
 2174000    304.25684    303.71092   -48.538765   -183003.24    810.24004      -182193    165338.62   0.81144112   0.21589514   0.21902086   0.41545237 
 2176000    304.46492    303.25054   -216.23723      -183002    809.01184   -182192.98    164678.48   0.81212167    0.2168017   0.21884512   0.41592283 
 2178000    303.72456     303.2156    7.9972175   -183001.89    808.91863   -182192.97    164047.73   0.81111211    0.2164975    0.2186522    0.4154206 
 2180000    303.89738    304.56026   -59.695896   -183005.51    812.50591      -182193    164135.78   0.81058123   0.21661774   0.21849668   0.41523188 
 2182000    302.69775     303.0147    -116.0749   -183001.23    808.38266   -182192.85    165600.94   0.81005262   0.21630987   0.21850458   0.41495569 
 2184000    304.63357    306.27845   -114.85337   -183009.89    817.08969    -182192.8    166846.46   0.80923402    0.2161675   0.21814413   0.41451521 
 2186000     303.8583     305.2778   -71.173888   -183007.37    814.42016   -182192.95    167311.01   0.80873822   0.21600463   0.21822441   0.41432242 
 2188000    303.59219    303.62866    100.02858    -183002.8    810.02059   -182192.78    167785.25   0.80833192   0.21605006   0.21806377   0.41414858 
 2190000     304.5138    305.32314   -79.026844   -183007.41    814.54111   -182192.87    167964.86   0.80897634   0.21588123   0.21793202    0.4142632 
 2192000    304.40308      305.711   -238.12867   -183008.41    815.57584   -182192.84    167602.05    0.8085224   0.21565131   0.21854868    0.4142408 
 2194000    304.41038    303.77373   -321.04912   -183003.29    810.40759   -182192.88    166788.73   0.80826306   0.21555936    0.2184188   0.41408041 
 2196000    305.45592    304.48923   -18.945321    -183005.3     812.3164   -182192.99    165816.74   0.80851425   0.21532135   0.21820022   0.41401194 
 2198000    305.32282      306.582   -262.73019   -183010.82     817.8995   -182192.92    165603.76   0.80888876   0.21547728   0.21804503   0.41413702 
 2200000    306.71339    304.90269   -84.326859   -183006.36    813.41943   -182192.94    165387.86   0.80796441   0.21628143   0.21823642   0.41416075 
 2202000    304.73143    305.87585   -107.53436    -183008.9    816.01565   -182192.88    165449.68   0.80731629   0.21631511   0.21841741   0.41401627 
 2204000    306.01138    304.90394   -252.06082   -183006.21    813.42278   -182192.79    165761.31   0.80928811   0.21605353   0.21817871   0.41450678 
 2206000    303.34344    305.99252   -190.93855   -183009.29    816.32688   -182192.96    166133.06   0.80844575   0.21651003   0.21809917   0.41435165 
 2208000    303.07609    304.92503   -128.50422   -183006.33    813.47904   -182192.85    165938.81   0.80793046   0.21678675   0.21797617   0.41423112 
 2210000    304.53772    305.05271   -73.479386   -183006.74    813.81967   -182192.92    166160.68   0.80739692   0.21669078   0.21821887   0.41410219 
 2212000    302.07118    304.49009   -8.8168049   -183005.18     812.3187   -182192.86    166150.08   0.80895691   0.21646928   0.21805587   0.41449402 
 2214000     304.2112     304.6415   -376.16874   -183005.68    812.72264   -182192.96    165390.76   0.80948743   0.21622001   0.21791781   0.41454175 
 2216000    303.95093    305.77505   -214.35947   -183008.68    815.74672   -182192.93     164630.9   0.80903104    0.2166012   0.21772808   0.41445344 
 2218000    303.49436    305.69203   -91.184725   -183008.52    815.52523      -182193    165042.86   0.81014675   0.21647217   0.21753798   0.41471897 
 2220000    306.21138    305.99587    -79.15656   -183009.21    816.33582   -182192.88    165589.42   0.81059533   0.21627531   0.21730717   0.41472594 
 2222000    304.98902    305.28815    134.45911   -183007.36    814.44778   -182192.91    166193.73   0.81501792   0.21602692   0.21824946   0.41643143 
 2224000    305.55338    308.22745   -274.55224   -183015.23    822.28924   -182192.94    166499.75   0.81977981   0.21604583   0.21789196   0.41790587 
 2226000     303.7455    304.70495   -110.23908   -183005.71     812.8919   -182192.81    166263.84   0.82097254    0.2157488   0.21822224   0.41831452 
 2228000    305.25654    305.13891   -249.56178   -183007.01    814.04962   -182192.96    166273.25   0.82217291   0.21570038   0.21803205   0.41863511 
 2230000    305.31613    304.88634    -386.8774   -183006.31    813.37582   -182192.93    165702.06   0.82111613   0.21537434   0.21785361    0.4181147 
 2232000    304.65903    304.09528    14.476782   -183004.11    811.26542   -182192.85    164901.83   0.82116531   0.21518011   0.21814152   0.41816232 
 2234000     306.7251    305.25912    55.696094   -183007.01    814.37031   -182192.64    164552.91   0.82104649    0.2149678   0.21882123   0.41827851 
 2236000    305.47398    304.63496   -23.337117   -183005.59    812.70519   -182192.89    164604.79   0.82060211   0.21490275    0.2186454   0.41805008 
 2238000    301.42817    302.49721   -69.793426   -182999.78    807.00209   -182192.78    164901.73   0.81982353    0.2145602   0.21864663   0.41767678 
 2240000     304.5735     304.1088   -199.71698   -183003.97    811.30149   -182192.67    165366.13    0.8198011    0.2145127   0.21857646   0.41763009 
 2242000     301.2231    303.53257   -22.618358   -183002.52    809.76422   -182192.76    165781.46   0.81950585   0.21415661   0.21847084   0.41737777 
 2244000    304.58958    304.10228   -140.22933   -183003.93    811.28411   -182192.64    164919.01   0.81910871   0.21409726    0.2191246   0.41744353 
 2246000    308.67192    306.08573    260.10764   -183009.27    816.57555   -182192.69     164277.6   0.81870674   0.21382992   0.21879583   0.41711083 
 2248000    307.14269    306.04397   -66.989309   -183009.29    816.46414   -182192.82    164778.45   0.81796382   0.21471345   0.21855209   0.41707645 
 2250000    305.02336    304.74134   -40.492659   -183005.59    812.98899    -182192.6    165601.44   0.81788447   0.21433874   0.21832099   0.41684807 
 2252000    300.41406    302.33365   -103.05605   -182999.12    806.56575   -182192.55    166472.58   0.81872049   0.21400864   0.21826399   0.41699771 
 2254000    304.57831    303.43207    -103.9604      -183002    809.49612    -182192.5       167670   0.81990734   0.21413556   0.21800858   0.41735049 
 2256000    304.77265    303.90424   -204.19414   -183003.28    810.75578   -182192.53    168010.19   0.81954492   0.21429357   0.21805224   0.41729691 
 2258000    302.96093    304.31198   -33.473187   -183004.48    811.84355   -182192.64     167344.9   0.81892031    0.2141129   0.21821814   0.41708378 
 2260000    300.57098    303.48156   -105.06191   -183002.24    809.62815   -182192.61    166258.38   0.81879598   0.21429182   0.21810333   0.41706371 
 2262000    305.37945    306.19436   -173.15693   -183009.63    816.86535   -182192.76    165097.79   0.81838925   0.21437757   0.21845149   0.41707277 
 2264000    303.88689    305.26115   -72.486842   -183006.96    814.37573   -182192.59    164339.88   0.81777694    0.2145317   0.21877437   0.41702767 
 2266000    303.92645    305.15655   -178.06737   -183006.61    814.09669   -182192.52    164105.33   0.81692422   0.21443489   0.21873127   0.41669679 
 2268000    306.24684    306.98633   -107.16729    -183011.6    818.97818   -182192.62    163459.92   0.81649552   0.21446159   0.21856638   0.41650783 
 2270000    303.08549    303.19024   -249.02428   -183001.36    808.85097   -182192.51    163971.81   0.81596927   0.21441393   0.21837403   0.41625241 
 2272000    303.49897    304.45255   -200.56521   -183004.83    812.21855   -182192.61    164735.06   0.81682665    0.2142684   0.21831243   0.41646916 
 2274000    303.98879    305.72333   -69.251141   -183008.13    815.60875   -182192.52    165590.33   0.81704065   0.21406962   0.21822819   0.41644615 
 2276000    302.82835    305.33079   -23.160837   -183007.07    814.56152   -182192.51    165213.84   0.81781077    0.2139865    0.2185454   0.41678089 
 2278000    303.30546    305.67364   -282.67989   -183008.01    815.47617   -182192.54    163931.97   0.81784506   0.21387486   0.21885271   0.41685754 
 2280000     307.2125    306.28769   -75.850703   -183009.67    817.11434   -182192.56       163216   0.81795605   0.21363902    0.2184936   0.41669622 
 2282000    301.10475    304.17909   -4.4152151   -183004.17    811.48901   -182192.68    164103.39   0.81817138   0.21340034   0.21825186   0.41660786 
 2284000    304.00865    304.13917    -171.6146   -183003.86    811.38253   -182192.48    165482.42   0.81795812   0.21378365   0.21844106   0.41672761 
 2286000    302.75521    305.04706   -31.258627   -183006.18    813.80459   -182192.38    166856.72   0.81901073   0.21471045   0.21822957   0.41731692 
 2288000    301.65395    303.38466    58.675039   -183001.82    809.36964   -182192.45    167101.08   0.81863344    0.2147182    0.2180914   0.41714768 
 2290000    303.14823    305.09299   -35.371655   -183006.33    813.92711    -182192.4    165894.04   0.81916649   0.21460981   0.21785211   0.41720947 
 2292000     306.1405    307.02589  -0.63974832   -183011.61    819.08371   -182192.52    164943.28   0.81920591   0.21438429   0.21762916   0.41707312 
 2294000    304.56518    304.55079   -119.65937   -183004.74    812.48064   -182192.26    164361.48   0.81878276   0.21426171   0.21741961   0.41682136 
 2296000    305.92748     305.5266   -59.631097   -183007.25    815.08392   -182192.16    163779.18   0.81824722   0.21404329   0.21722494   0.41650515 
 2298000    306.62581    305.26931   -80.383554   -183006.83    814.39751   -182192.43    164237.56   0.81757245   0.21484088   0.21704959   0.41648764 
 2300000    304.14615     305.0626   -23.777614   -183006.05    813.84605   -182192.21    164768.49   0.81744331   0.21487043   0.21704054   0.41645142 
 2302000    306.08113    305.58244   -82.203632   -183007.62    815.23288   -182192.38    164726.65   0.81714697   0.21460536   0.21711615    0.4162895 
 2304000    305.82579    305.27823   -135.27311   -183006.68     814.4213   -182192.26    164805.03   0.81633773   0.21450525   0.21751142   0.41611813 
 2306000    305.97528    305.51749   -52.873615   -183007.29     815.0596   -182192.23    164945.86   0.81681793   0.21439433   0.21773664    0.4163163 
 2308000    303.85792    303.22381   -83.395879   -183000.98    808.94052   -182192.03    165049.67   0.81673484   0.21501636   0.21758519   0.41644546 
 2310000    305.63264    303.75061   -5.6476256   -183002.41    810.34592   -182192.06    165481.91   0.81646232   0.21483724   0.21762008   0.41630655 
 2312000    302.88356    303.82567    92.989503   -183002.62    810.54615   -182192.08     166231.5   0.81721269   0.21475187    0.2178843   0.41661628 
 2314000    304.35675    305.36575   -99.319499   -183006.59    814.65479   -182191.94    166777.15   0.81725788    0.2146909   0.21789307   0.41661395 
 2316000    305.84736    305.05116    -27.92034   -183005.92    813.81552    -182192.1    167272.26   0.81737021   0.21452218   0.21763945   0.41651062 
 2318000    303.63242    305.97124   -172.90395   -183008.48    816.27012   -182192.21    167254.17   0.81874765   0.21430666   0.21753105   0.41686178 
 2320000    303.38687    304.04274    83.557662   -183003.13    811.12527   -182192.01    166573.42   0.81980117    0.2156813   0.21778546   0.41775598 
 2322000    305.60015    303.46572   -255.04292   -183001.67    809.58589   -182192.08    165976.23   0.81981332   0.21612832   0.21747807   0.41780657 
 2324000    307.09247    306.83732   -77.355334   -183010.73    818.58065   -182192.15    165792.56   0.82083101   0.21650306   0.21737797   0.41823735 
 2326000    306.31715     305.2889   -25.596518    -183006.5    814.44976   -182192.05    165264.56    0.8236717    0.2161956   0.21728614   0.41905115 
 2328000    304.57972    302.81977     81.50293   -182999.91    807.86263   -182192.05    164378.42   0.82493295   0.21602567   0.21706922   0.41934261 
 2330000    304.22957    305.01163    -255.3092   -183005.79    813.71005   -182192.08    164139.74   0.82735099   0.21611196   0.21694945   0.42013747 
 2332000    306.95978    305.16869   -20.672095    -183006.1    814.12907   -182191.97    164077.06   0.82696806   0.21614682   0.21696956   0.42002815 
 2334000    305.61363    305.06585   -16.483558   -183005.95    813.85472    -182192.1    164976.18   0.82608198   0.21597483   0.21743233   0.41982971 
 2336000    302.00401    302.35496   -253.14269   -182998.54    806.62262   -182191.92    166028.11   0.82552172   0.21621443   0.21795679   0.41989765 
 2338000    303.47647    304.90723   -221.55603   -183005.43    813.43156      -182192    167040.32   0.82598548   0.21602221   0.21835925   0.42012231 
 2340000    302.98584    303.27054   -105.27912   -183000.99    809.06518   -182191.92    167302.61   0.82591891   0.21601071   0.21882665   0.42025209 
 2342000    302.21434    304.42278   -17.563338   -183004.11    812.13913   -182191.97    166256.59   0.82668142   0.21560191   0.21959635   0.42062656 
 2344000     303.0622    304.06573    -289.5873   -183003.07     811.1866   -182191.88    165178.04   0.82735952   0.21562135   0.21951192   0.42083093 
 2346000    302.03497    303.03651    91.178193   -183000.42    808.44085   -182191.98    164730.16   0.82801744     0.215256   0.21940259   0.42089201 
 2348000    304.89484    305.11349   -241.22706   -183005.85    813.98182   -182191.87     165053.1   0.82832808   0.21511736   0.21907687   0.42084077 
 2350000    299.65471    303.37182   -194.78802   -183001.24    809.33537   -182191.91       166500   0.82844048   0.21600857   0.21887273   0.42110726 
 2352000    300.82086    304.76147   -179.12133   -183005.07     813.0427   -182192.03    168152.01   0.82783696    0.2161767   0.21872851   0.42091406 
 2354000    301.82886    303.37573   -236.72851   -183001.12    809.34582   -182191.78     168888.5   0.82810325   0.21616901   0.21842492   0.42089906 
 2356000    299.86455    303.45672   -120.02766   -183001.38    809.56189   -182191.82    168283.72   0.82803637   0.21614988   0.21832132   0.42083585 
 2358000    304.94263    305.49737   -284.56048   -183006.97    815.00592   -182191.97    166958.46    0.8277425   0.21607739   0.21810722   0.42064237 
 2360000     304.3623    304.27265   -44.878844   -183003.63    811.73861   -182191.89    165826.04   0.82775345   0.21602835   0.21870689   0.42082956 
 2362000    305.73989    303.73761   -74.213855   -183002.25    810.31124   -182191.94    165098.46   0.82782457   0.21572572   0.21889095   0.42081375 
 2364000    303.87441    303.89452    -95.05369    -183002.7    810.72983   -182191.97    164803.16   0.82762831   0.21622326   0.21916374    0.4210051 
 2366000    307.18724    305.89703   -131.17855   -183007.91    816.07215   -182191.84    164816.49   0.82823138   0.21672777   0.21931066   0.42142327 
 2368000    304.09939    303.75502   -255.15931   -183002.15    810.35768    -182191.8    165373.26   0.82746612    0.2164999   0.21919565   0.42105389 
 2370000    306.29764    305.73838   -150.73915   -183007.55    815.64888    -182191.9    166119.83   0.82847599   0.21629487   0.21913514     0.421302 
 2372000    303.97084    302.62252    220.85361   -182998.93    807.33641    -182191.6    166399.13   0.82795559   0.21617082   0.21902284   0.42104975 
 2374000     305.1342    305.32088   -243.51391   -183006.24    814.53509    -182191.7    166842.05   0.82834435   0.21607699    0.2188132   0.42107818 
 2376000    306.68009     304.0347   -40.065374    -183002.9    811.10382    -182191.8     167262.2    0.8301154   0.21616259   0.21832847   0.42153548 
 2378000    308.30839    304.32701   -263.64879   -183003.59    811.88364    -182191.7    167920.35   0.83061416   0.21653271   0.21811426   0.42175371 
 2380000    305.86001    304.46618   -198.73232   -183003.92    812.25491   -182191.67    167999.19    0.8308157     0.216314   0.21789475   0.42167482 
 2382000    304.18908    304.14503    -133.7202   -183002.93    811.39815   -182191.54    167930.36   0.83015441   0.21604907   0.21761278   0.42127209 
 2384000    305.23398    303.01533   -332.61225   -183000.04    808.38434   -182191.66    167011.12   0.83062764   0.21662305   0.21710171    0.4214508 
 2386000    307.57431    306.31422   -48.478818   -183008.77    817.18512   -182191.59    166356.34   0.83121967   0.21647528   0.21710099   0.42159865 
 2388000    301.28898    302.79979    27.201042   -182999.48    807.80932   -182191.68    165596.06   0.83065325   0.21630985   0.21689905   0.42128738 
 2390000      305.381    304.36275   -217.00633   -183003.67    811.97898   -182191.69    165796.31   0.83161075   0.21604591   0.21672327   0.42145998 
 2392000    305.75071    305.04976   -85.048127   -183005.54    813.81178   -182191.73    165679.07   0.83244923   0.21580676   0.21693605   0.42173068 
 2394000    302.98843    303.96438   -30.276065   -183002.51    810.91621    -182191.6    166117.96   0.83153048   0.21629329   0.21702985   0.42161787 
 2396000    305.43526     305.1785   -367.28403   -183006.01    814.15525   -182191.86    166239.69   0.83122779   0.21761564   0.21699591   0.42194645 
 2398000    306.91568    305.85683   -1.3267742   -183007.57     815.9649    -182191.6    165540.75   0.83082678   0.21752437    0.2169381   0.42176308 
 2400000    307.66143    305.91465     86.26297   -183007.77    816.11913   -182191.65    165011.28   0.83055854   0.21723825   0.21677572   0.42152417 
 2402000    306.73362    306.39888   -54.245662   -183008.99    817.41097   -182191.58    164974.63   0.83002347   0.21743218   0.21666301   0.42137289 
 2404000    309.13283    308.34522   -24.005173   -183014.32    822.60341   -182191.71    165489.15   0.82959213    0.2179546   0.21656447    0.4213704 
 2406000    306.96672    307.07032    81.766394    -183010.8    819.20225   -182191.59    165865.52   0.82957766   0.21794172   0.21639267   0.42130402 
 2408000     307.9426    306.62669   -143.98616   -183009.71    818.01873   -182191.69    166595.44   0.83052016   0.21774052   0.21639427   0.42155165 
 2410000     304.4151    304.21462   -45.024513   -183003.09    811.58379    -182191.5     167045.5   0.83134543   0.21764602   0.21615083   0.42171409 
 2412000    303.95679     304.0072   -161.68998   -183002.65    811.03045   -182191.61    166417.64   0.83047753    0.2174817   0.21677958    0.4215796 
 2414000    308.00703    305.06538   -120.74081    -183005.5    813.85347   -182191.64    165133.76   0.83033518   0.21749969   0.21710485   0.42164657 
 2416000     303.7373    302.79977    41.932297   -182999.23    807.80926   -182191.43    164327.57   0.83011611    0.2173777   0.21788018   0.42179133 
 2418000    304.76083       303.97   -213.17518   -183002.47    810.93121   -182191.54    164160.57   0.82998221   0.21725012   0.21772757    0.4216533 
 2420000    306.38937    305.11406    -182.4511    -183005.6    813.98333   -182191.62    165302.11   0.83043997   0.21714602   0.21933347   0.42230649 
 2422000    303.14323    304.36488    58.514193   -183003.58    811.98466   -182191.59    166414.92   0.83121871   0.21726053   0.21929633   0.42259186 
 2424000    302.21296    301.13408   -84.519851   -182994.89    803.36553   -182191.53    166391.88   0.83122494    0.2170043   0.21912666   0.42245197 
 2426000    303.94021    303.63116   -153.89965   -183001.48    810.02724   -182191.45    166590.17   0.83142275   0.21688659   0.21899802   0.42243579 
 2428000    308.93948    307.05011   -104.27592   -183010.64    819.14831    -182191.5     167090.1   0.83195596   0.21666822   0.21959091   0.42273837 
 2430000    304.87631     304.6679   -135.21278   -183004.28    812.79306   -182191.49    167512.19    0.8323921   0.21645624   0.21933866     0.422729 
 2432000    304.63978    304.46954   -21.587203   -183003.62    812.26388   -182191.35    167313.88   0.83211933   0.21627607   0.21914889   0.42251476 
 2434000    303.72982    304.08149   -107.00149   -183002.66    811.22864   -182191.43    166979.65   0.83248027   0.21620463   0.21922921   0.42263804 
 2436000    303.49271     302.8915   -100.14952   -182999.57    808.05397   -182191.52    166083.18   0.83123433   0.21602835   0.21881113   0.42202461 
 2438000    303.80541    304.33016   -68.204091   -183003.34    811.89204   -182191.45    165228.53   0.83071006    0.2162835   0.21859993   0.42186449 
 2440000    306.48517     306.5064    18.373456   -183009.13    817.69782   -182191.43    165156.01   0.83122413   0.21635385   0.21871353   0.42209717 
 2442000    305.27699    306.08744   -38.210585   -183007.95    816.58013   -182191.37    165957.19   0.83046955   0.21622102   0.21877853   0.42182303 
 2444000    302.30019    303.44748   -69.600229   -183000.84    809.53724    -182191.3    167087.36   0.83091067   0.21606582   0.21856799   0.42184816 
 2446000    306.84858    304.28683   -10.391115   -183003.13    811.77644   -182191.35    167665.87   0.83014979   0.21591367   0.21834027   0.42146791 
 2448000    307.28486    304.56165   -144.83782    -183003.9    812.50961   -182191.39    167341.54   0.82956126   0.21585012   0.21815774   0.42118971 
 2450000    305.75577    304.67301   -205.88461   -183004.06    812.80669   -182191.25    166107.65   0.82912473   0.21559322   0.21802294   0.42091363 
 2452000    303.50226    304.04957   -159.86852   -183002.66    811.14349   -182191.52    164116.63   0.83042308   0.21559942   0.21778344   0.42126865 
 2454000    308.11303    306.58247    62.313752   -183009.17    817.90075   -182191.27    163172.17    0.8308528   0.21562909   0.21775157   0.42141115 
 2456000    306.19613    306.40639    -171.5404   -183008.75      817.431   -182191.32    162955.38   0.83054355   0.21549096   0.21755551   0.42119667 
 2458000    305.80238    305.98066   -105.65444   -183007.66    816.29526   -182191.36    163473.52   0.83122872   0.21530367   0.21741215   0.42131485 
 2460000    308.46103    306.82704    145.18801   -183009.71    818.55321   -182191.16    164650.49   0.83127248   0.21543227   0.21724212   0.42131563 
 2462000    305.01318    306.21437   -117.50499   -183008.33    816.91874   -182191.41    165170.22   0.83096546   0.21524247   0.21708007     0.421096 
 2464000     305.7816    304.82254   -136.44793   -183004.54    813.20561   -182191.33    165165.37   0.83078817   0.21511264   0.21694259    0.4209478 
 2466000    304.96521    304.78787    32.048344   -183004.48    813.11311   -182191.36    164936.65   0.83047805   0.21497217   0.21721865   0.42088962 
 2468000    305.05006    306.02071    178.12446   -183007.76     816.4021   -182191.36    164222.38   0.83022507   0.21472039   0.21714051   0.42069532 
 2470000    308.11069    305.99139   -137.25025   -183007.58    816.32387   -182191.26    164378.66   0.83080078   0.21460772   0.21692357   0.42077735 
 2472000    307.14201    306.71482   -183.90478    -183009.5    818.25385   -182191.25    164743.71   0.83070007    0.2144294   0.21730387   0.42081111 
 2474000    304.37079    303.84819   -188.33816   -183001.76    810.60624   -182191.15    165492.82   0.83185544     0.214198   0.21722389   0.42109244 
 2476000    303.50352    303.02568    23.267341   -182999.34    808.41196   -182190.93    166063.68   0.83248521     0.214069   0.21731259   0.42128894 
 2478000    305.61155    304.77399   -57.396349   -183004.08     813.0761      -182191    165978.53   0.83230344   0.21400858   0.21746129   0.42125777 
 2480000    305.59151    304.43376   -248.89696   -183003.14    812.16842   -182190.97    165841.97   0.83198874   0.21379035   0.21728236   0.42102048 
 2482000    302.97484    303.19678    73.290849   -182999.94    808.86841   -182191.08    165692.21   0.83217142   0.21368611   0.21709615   0.42098456 
 2484000    308.13042    306.23463    -161.2803   -183007.97    816.97278   -182190.99    164683.73   0.83248185   0.21359542   0.21710301    0.4210601 
 2486000    307.84037    305.68061   -152.23404   -183006.49    815.49478   -182190.99    163881.55   0.83274428   0.21345922   0.21716557   0.42112302 
 2488000    305.27688     304.4151    91.710915   -183003.17    812.11864   -182191.05    164084.87   0.83445773   0.21356535   0.21692442   0.42164917 
 2490000    304.43294    304.35881     48.16694   -183002.91    811.96848   -182190.94    163974.25   0.83487208   0.21351638   0.21686145   0.42174997 
 2492000    306.18631    305.94845   -212.45527   -183007.25    816.20931   -182191.04    163962.58   0.83485237   0.21330642   0.21664702   0.42160194 
 2494000    302.27234    303.45725    -97.14716   -183000.54     809.5633   -182190.98    164258.78    0.8342329    0.2131754   0.21649954   0.42130261 
 2496000    303.28096    303.97879   -266.68254   -183001.93    810.95467   -182190.97    164468.13   0.83357404   0.21296516   0.21631784   0.42095235 
 2498000    305.72697    304.52059   -312.44384   -183003.43    812.40006   -182191.03    164541.76    0.8328888   0.21285542   0.21615756   0.42063393 
 2500000    301.83102    304.94365   -26.125658   -183004.43    813.52872    -182190.9    164976.18   0.83266948   0.21286082    0.2159979    0.4205094 
 2502000    304.92047     305.3862   -122.17292   -183005.67    814.70936   -182190.96    165294.96   0.83284605   0.21260894    0.2158002   0.42041839 
 2504000    303.06351    305.63783   -64.240893   -183006.26    815.38064   -182190.88     165877.1   0.83257597   0.21244378   0.21561748   0.42021241 
 2506000    303.77526    304.50045   -249.38337    -183003.3    812.34635   -182190.96    165917.49   0.83256404   0.21244224   0.21554247   0.42018292 
 2508000    305.69796    305.97915   -227.46799    -183007.4    816.29121   -182191.11     165095.3   0.83239581    0.2123051    0.2153698   0.42002357 
 2510000    307.45487    306.55243    -85.80548   -183008.84    817.82061   -182191.01    164266.26   0.83256703   0.21211993   0.21535891   0.42001529 
 2512000    306.17024    307.22362    70.256997   -183010.69    819.61122   -182191.08    163759.54   0.83204133   0.21247006    0.2157161   0.42007583 
 2514000    307.04993    307.64585    8.2145624   -183011.79    820.73765   -182191.05    164005.09   0.83138327   0.21228336    0.2159094   0.41985868 
 2516000      304.576     304.9069   -146.16957   -183004.38    813.43067   -182190.95    165059.56   0.83072172   0.21258971   0.21681608    0.4200425 
 2518000    300.48093    303.60283    30.780976   -183000.89    809.95168   -182190.94    165739.87   0.83048539   0.21240219   0.21662593   0.41983784 
 2520000    305.55069    304.88111   -130.14997   -183004.26    813.36186    -182190.9    165905.35   0.83032079    0.2124467   0.21659662   0.41978804 
 2522000     304.1827    304.87763   -17.249931   -183004.26    813.35259    -182190.9    165580.48   0.83061046   0.21223192   0.21643422   0.41975887 
 2524000    310.69456    307.28835   -156.93325    -183010.8    819.78391   -182191.01    165405.99   0.83015655   0.21230299   0.21659734   0.41968563 
 2526000    307.87678    306.56474    157.17463   -183008.73    817.85346   -182190.88    165366.51   0.83078959   0.21257818   0.21631131   0.41989303 
 2528000    307.63873    305.88664    22.699538    -183006.9    816.04441   -182190.86    165227.21   0.83129183   0.21283504   0.21619515   0.42010734 
 2530000    307.27669    306.60598   -65.082586   -183008.91    817.96346   -182190.94    165323.04   0.83118472   0.21274712   0.21632461   0.42008548 
 2532000    307.38336    307.58992   -128.60496   -183011.33    820.58842   -182190.74    165412.91   0.83115596   0.21270098   0.21619719   0.42001804 
 2534000    307.34638    307.28878   -163.99947   -183010.61    819.78505   -182190.83    166238.86   0.83065666   0.21257423   0.21603853   0.41975647 
 2536000    304.87457     305.6426   -108.39238   -183006.08    815.39337   -182190.69    167206.25   0.83000627   0.21250557   0.21648866   0.41966683 
 2538000    302.73014     302.9012   -40.010529    -182998.7    808.07985   -182190.62    168054.28   0.82947281   0.21260157   0.21607369   0.41938269 
 2540000    302.62951    304.44446   -128.64452   -183002.85    812.19697   -182190.66    168435.05    0.8296666   0.21278941   0.21580238   0.41941946 
 2542000       305.31    305.24761   -188.02501   -183004.91    814.33961   -182190.57    167886.71   0.82944333   0.21272998    0.2163582    0.4195105 
 2544000    305.87254    307.55212   -48.171954   -183011.24    820.48758   -182190.75    167497.67   0.82894361   0.21258165   0.21716787   0.41956438 
 2546000     304.4216    305.14255   -125.83268   -183004.73    814.05934   -182190.67    167183.19   0.82834717   0.21248108   0.21715831   0.41932885 
 2548000    305.07492    305.07266   -210.91145   -183004.61    813.87287   -182190.74    167063.16    0.8276139   0.21270967   0.21705632   0.41912663 
 2550000    302.51991    302.97253   -243.01864   -182998.87    808.27016    -182190.6    166567.73   0.82702552   0.21240998   0.21725866   0.41889805 
 2552000    303.29025    305.74732   -75.582994   -183006.54    815.67273   -182190.87    166204.03   0.82681132   0.21274593    0.2182145   0.41925725 
 2554000    305.77809    308.66828    100.92003   -183014.19    823.46527   -182190.72    166103.21   0.82613407   0.21239951   0.21822615   0.41891991 
 2556000    301.37717    305.20953   -205.78662   -183004.89    814.23802   -182190.65    165884.88   0.82616455    0.2123043   0.21808116      0.41885 
 2558000    301.81569    303.83738   -190.75133   -183001.25     810.5774   -182190.67    165270.43   0.82611839   0.21201863   0.21790633   0.41868112 
 2560000    300.26356    304.52788   -197.08435   -183003.21    812.41953   -182190.79    164241.92   0.82686868     0.211927   0.21770991    0.4188352 
 2562000    301.43952    304.69408     11.17992   -183003.43    812.86292   -182190.57    163517.76   0.82650724   0.21171678   0.21759785   0.41860729 
 2564000    305.86777    309.30539    17.717448   -183015.82    825.16497   -182190.66     163424.9   0.82586863   0.21176914   0.21760654   0.41841477 
 2566000    302.02407    304.41237   -167.71425   -183002.71    812.11135   -182190.59    164077.74   0.82538566   0.21186648   0.21734598   0.41819937 
 2568000    306.39848    307.78858   -347.44745    -183011.8    821.11841   -182190.69    165115.11   0.82491111   0.21177815   0.21709904   0.41792943 
 2570000    305.68682    308.25734   -44.011304   -183012.97    822.36896    -182190.6    166272.16   0.82468161   0.21164393   0.21694898   0.41775817 
 2572000    303.04778    305.94472   -129.82425   -183006.83    816.19936   -182190.63    167179.04   0.82417325     0.211349   0.21708487   0.41753571 
 2574000    302.28194    305.95319   -246.42363   -183006.91    816.22197   -182190.69    166613.14   0.82368722   0.21154946   0.21690596   0.41738088 
 2576000    302.45173    304.81615   -163.28077   -183003.85    813.18857   -182190.66    164841.94   0.82296379   0.21156299   0.21664293   0.41705657 
 2578000    303.11244    305.25942    83.733028   -183004.96    814.37112   -182190.58    163736.33   0.82295514    0.2114938   0.21664776   0.41703224 
 2580000     304.5004    306.27657   -330.94554   -183007.54    817.08467   -182190.46    163228.24   0.82312919   0.21140445   0.21618736     0.416907 
 2582000      303.088    308.07729   -236.90634   -183012.51    821.88864   -182190.62    162966.73   0.82277322   0.21154327   0.21688395   0.41706681 
 2584000    302.74505     306.0885    41.617417   -183007.23    816.58295   -182190.65    163770.66   0.82263515   0.21132848   0.21696344   0.41697569 
 2586000    300.94944    304.80602    67.539514   -183003.79    813.16155   -182190.62    165154.94   0.82257763   0.21149551   0.21670806   0.41692707 
 2588000    304.34372    305.25842   -83.571082    -183004.9    814.36846   -182190.53    166786.29    0.8224055   0.21134088   0.21647736   0.41674125 
 2590000    300.35334    302.54842   -181.30186   -182997.53    807.13871   -182190.39    168108.05   0.82197396   0.21122739   0.21644804    0.4165498 
 2592000    301.77447    305.55788   -308.33233   -183005.69    815.16736   -182190.52    168713.53   0.82175046    0.2111601   0.21670713   0.41653923 
 2594000    301.28449    305.32135   -231.42069   -183005.03    814.53635   -182190.49    168343.88   0.82315179   0.21104415   0.21701273   0.41706955 
 2596000    300.96094    305.06135    52.240333   -183004.34    813.84272    -182190.5    166890.52    0.8231865   0.21093021    0.2169982    0.4170383 
 2598000    303.94736    304.81328    -17.82771    -183003.8    813.18091   -182190.62    165932.89   0.82314568   0.21096524   0.21701621   0.41704238 
 2600000    305.24841    306.24274    -163.8152   -183007.68    816.99443   -182190.69    165244.17   0.82291319   0.21091874    0.2167939   0.41687528 
 2602000    302.50869    304.64323    66.261344   -183003.32    812.72724   -182190.59    165042.47   0.82251296   0.21085146   0.21704035   0.41680159 
 2604000    303.28557    303.98605   -294.44116   -183001.57    810.97402   -182190.59    164839.96   0.82212603    0.2108412   0.21708391   0.41668371 
 2606000    302.36187    304.45774   -222.70356   -183002.67    812.23241   -182190.44    165587.75    0.8215231   0.21055739   0.21692815   0.41633622 
 2608000    304.89137    305.90331   -98.148082   -183006.76     816.0889   -182190.68       165987   0.82087709   0.21056959   0.21678501   0.41607723 
 2610000    303.42005    305.04055   -159.34828   -183004.36    813.78722   -182190.57    166472.37   0.82015358   0.21055833   0.21696411   0.41589201 
 2612000    305.25541    305.49227   -242.79617   -183005.62    814.99231   -182190.62    166931.72   0.81993792   0.21108301   0.21694769   0.41598954 
 2614000    304.36278    305.18263   -16.896231   -183004.76    814.16626   -182190.59    166232.97    0.8193032   0.21166817   0.21691184   0.41596107 
 2616000    305.18762    306.77583    192.63345   -183009.14     818.4166   -182190.72    165911.38   0.81862822   0.21151813   0.21697338   0.41570658 
 2618000    307.98351    307.27631   -169.70053   -183010.36    819.75178   -182190.61    166417.92   0.81837383   0.21208135   0.21775049   0.41606856 
 2620000    305.86233    305.49509   -281.01082   -183005.59    814.99983   -182190.59    166303.76   0.81824375   0.21226854   0.21764248   0.41605159 
 2622000     302.8274    305.51912   -129.77258   -183005.72    815.06396   -182190.66    166202.72    0.8174913   0.21219299   0.21744485   0.41570972 
 2624000    303.51895    305.32532    5.0081648   -183005.21    814.54692   -182190.67    165696.53   0.81766832   0.21202173   0.21731345   0.41566783 
 2626000    300.65914    303.60523   -339.20074   -183000.52    809.95808   -182190.57    165730.63   0.81740516   0.21256385   0.21732869    0.4157659 
 2628000    303.72813    304.99984   -13.531419   -183004.28    813.67862    -182190.6    166233.11   0.81683829   0.21235431   0.21727136   0.41548799 
 2630000    301.64465    304.29704   -64.728299   -183002.58    811.80369   -182190.78    166119.25   0.81609723   0.21228236    0.2171373    0.4151723 
 2632000    301.42251    304.37053   -7.2533478   -183002.63    811.99975   -182190.63    166128.55   0.81555986   0.21239568   0.21805575    0.4153371 
 2634000    302.82251    304.71721   -16.800075   -183003.55    812.92462   -182190.63    165903.72   0.81512607   0.21225907    0.2176612   0.41501545 
 2636000    305.85891    305.81862   -80.461105   -183006.44    815.86296   -182190.57     165924.9   0.81625335   0.21206101   0.21757876   0.41529771 
 2638000    304.30885    304.10066   -54.716075   -183001.97    811.27977   -182190.69    165008.48   0.81580123   0.21178142   0.21747307   0.41501857 
 2640000    303.06224    305.04768   -199.45481   -183004.41    813.80623    -182190.6    164738.29    0.8154985   0.21156276    0.2174629   0.41484139 
 2642000    302.58272    304.78054    4.7727731   -183003.69    813.09356    -182190.6    164969.72   0.81504718    0.2114142    0.2173609   0.41460743 
 2644000     306.9455    307.58254   -85.201321   -183011.22    820.56873   -182190.65    165464.31   0.81462504   0.21130246   0.21743069   0.41445273 
 2646000    306.31552    305.14837   -173.03002   -183004.58    814.07486    -182190.5    165500.21   0.81523181    0.2112277   0.21758189   0.41468047 
 2648000    307.30403     306.3227    -87.63681    -183007.7    817.20773    -182190.5    165373.57   0.81607899   0.21101711   0.21773024   0.41494211 
 2650000    306.32706    306.66396   -158.58869   -183008.72    818.11816   -182190.61    164976.63   0.81558828   0.21083358   0.21776397   0.41472861 
 2652000    308.15886    306.85685    138.24565   -183009.18    818.63274   -182190.54    164385.11   0.81488079    0.2108251   0.21755601   0.41442063 
 2654000    303.96052    304.80163   -35.640878   -183003.55    813.14983    -182190.4    163989.02   0.81425928   0.21059573   0.21830762   0.41438754 
 2656000    303.05889    304.01456   -67.163835   -183001.55    811.05009    -182190.5     163707.7   0.81383263   0.21045779   0.22000641   0.41476561 
 2658000    305.09499    305.31807    125.48322   -183004.97    814.52759   -182190.45    163933.37   0.81337485   0.21061017   0.21987906   0.41462136 
 2660000    302.57079    305.09395    102.35163   -183004.45    813.92969   -182190.52    164466.15   0.81314763   0.21043014   0.21972322   0.41443366 
 2662000    303.82125    304.48157   -141.19811   -183002.73    812.29598   -182190.43    165097.58   0.81258359   0.21040761   0.21960977   0.41420032 
 2664000    303.11971    304.81445   -18.680477    -183003.4    813.18402   -182190.22    165622.57   0.81243112   0.21042285   0.21975962   0.41420453 
 2666000    303.96579    304.14513    -162.8007   -183001.76    811.39841   -182190.36    165760.95   0.81248907   0.21032888   0.22001283   0.41427693 
 2668000    304.32946    305.60315    29.251884   -183005.64    815.28811   -182190.36    165961.18    0.8122255   0.21081651   0.21982426   0.41428876 
 2670000    304.00698    304.91674   -156.89913   -183003.77    813.45692   -182190.31    166108.76   0.81160062   0.21082246   0.22020728   0.41421012 
 2672000    301.88534    304.81323   -237.80565    -183003.5    813.18077   -182190.32    166163.63   0.81133695   0.21059823   0.22027986   0.41407168 
 2674000    306.22707    305.30823    35.365002   -183004.88    814.50133   -182190.38    165072.72   0.81119687   0.21068495   0.22012955   0.41400379 
 2676000    303.26198     303.4639   -90.525904   -182999.94    809.58103   -182190.36    163706.21   0.81081131   0.21077532   0.21994753   0.41384472 
 2678000    307.39564    306.11266   -128.14747   -183006.91    816.64739   -182190.27    163587.77   0.81088193   0.21066886   0.21983744   0.41379608 
 2680000    308.03262    307.22823    11.681184   -183009.83     819.6235   -182190.21    163815.84   0.81037147   0.21048032   0.21965691    0.4135029 
 2682000    306.82351    304.76298   -76.536468   -183003.19    813.04672   -182190.15    164569.02   0.80983959   0.21039471   0.21958651    0.4132736 
 2684000    305.78657    305.28599    79.251216   -183004.77    814.44201   -182190.32    165787.38    0.8095836   0.21013627   0.21954023    0.4130867 
 2686000    305.91179    305.77458   -139.05211   -183006.07    815.74546   -182190.32    166847.85    0.8095525   0.21002328   0.21920251    0.4129261 
 2688000    302.51675    304.46737   -220.46997   -183002.54    812.25809   -182190.28    167213.31   0.80948975   0.21057795   0.21914889    0.4130722 
 2690000    303.49583    304.77239   -349.72088   -183003.39    813.07183   -182190.32    166971.99   0.80899289    0.2104668   0.21918158   0.41288042 
 2692000    301.59683    302.63208   -47.006542   -182997.62    807.36189   -182190.25    166635.31   0.80914342   0.21034828   0.21916156   0.41288442 
 2694000    304.36688    304.64238    152.41022    -183003.1    812.72497   -182190.37    166827.27   0.80870835   0.21022047   0.21970922   0.41287935 
 2696000    304.29607    304.58316   -295.54948   -183002.81      812.567   -182190.24    167142.72   0.80848858   0.21056327    0.2195795   0.41287712 
 2698000    303.87115     304.3523   -280.67059   -183002.16     811.9511   -182190.21    166744.15   0.80762024   0.21021785   0.21942019   0.41241942 
 2700000    301.72142    301.49242   -266.01702   -182994.61    804.32151   -182190.29    166152.62   0.80751888    0.2099983   0.21921232   0.41224317 
 2702000    304.35001    305.14256   -214.13495    -183004.3    814.05937   -182190.24    166049.07   0.80688061   0.20982053   0.21905731   0.41191948 
 2704000    304.39156    306.67315   -186.36697   -183008.54    818.14267    -182190.4    165624.23   0.80658781   0.20968551   0.21891941   0.41173091 
 2706000     305.9205    307.22146    86.325268   -183009.95    819.60546   -182190.34    165604.32    0.8070405     0.209895   0.21873604   0.41189051 
 2708000    304.39388    305.63655   -271.73374   -183005.53    815.37724   -182190.16    165407.93    0.8064139   0.20962909   0.21850235   0.41151511 
 2710000    305.19795     305.0398   -186.50422    -183004.1    813.78523   -182190.32    165365.02   0.80593438   0.20946437   0.21844908   0.41128261 
 2712000    306.45558    305.64007   -339.99418   -183005.72    815.38662   -182190.34     164800.1   0.80558411   0.20938894   0.21827806    0.4110837 
 2714000     304.7305    303.11227    13.612555   -182998.97    808.64294   -182190.33    164081.94   0.80636473   0.20929693   0.21817702   0.41127956 
 2716000    306.53976    306.58172    -162.3343   -183008.26    817.89876   -182190.36    164081.66   0.80622934   0.20924045   0.21826711   0.41124563 
 2718000    303.31694    305.34446    -167.1003   -183004.92    814.59799   -182190.32    164620.09   0.80763055   0.20962422   0.21820708   0.41182062 
 2720000    306.93171    308.12528    56.432051   -183012.49    822.01666   -182190.47       164779   0.80918077    0.2096613   0.21791267   0.41225158 
 2722000    302.24115    303.49993   -130.76566   -182999.82    809.67714   -182190.14    164809.82   0.80981878   0.20952862   0.21810755   0.41248498 
 2724000    305.84783    306.56436    -155.2353   -183008.14    817.85243   -182190.28    165246.24   0.80981409   0.20995195   0.21772135   0.41249579 
 2726000    305.50479    307.50522   -315.72337   -183010.56    820.36247    -182190.2    165757.62    0.8088456   0.20981912   0.21758941   0.41208471 
 2728000     305.3363    306.41024   -43.835122   -183007.67    817.44129   -182190.22    166189.68   0.80848388    0.2095635   0.21741258   0.41181998 
 2730000    305.61596    306.34437   -17.215649    -183007.6    817.26554   -182190.34    166444.76   0.80865061    0.2093676   0.21746583   0.41182801 
 2732000    304.95824    306.80905   -142.51137   -183008.66    818.50523   -182190.15     166041.9   0.80919473    0.2092641   0.21740477   0.41195453 
 2734000    308.60067    307.97609   -43.748157   -183011.79    821.61866   -182190.17    165535.59   0.80928559   0.20964983   0.21733108   0.41208884 
 2736000    304.62632    305.03339   -6.2327001   -183003.94    813.76813   -182190.17    165646.43   0.80972835   0.20977011   0.21730462   0.41226769 
 2738000    303.74469    304.07577   -154.15184   -183001.25    811.21339   -182190.03    166111.46   0.81256944   0.20957355   0.21718952   0.41311084 
 2740000    301.82934    305.98719   -93.457886   -183006.52    816.31266   -182190.21       166442   0.81435537   0.20954423   0.21717193   0.41369051 
 2742000    305.94751    305.14836   -128.57521   -183004.34    814.07484   -182190.27    166448.74   0.81386923   0.20931114   0.21715223    0.4134442 
 2744000    304.88659    304.94794    173.49328   -183003.53    813.54015   -182189.99    166932.65   0.81481186   0.20936484   0.21700151   0.41372607 
 2746000    306.09033     305.7951    12.187294   -183006.04     815.8002   -182190.24    166750.51   0.81477818   0.20923222   0.21693762   0.41364934 
 2748000    306.46875    305.35782    22.076568   -183004.84    814.63363    -182190.2    167014.28   0.81580253   0.20917859   0.21685164   0.41394425 
 2750000    304.95389    304.07585   -292.51584   -183001.44    811.21359   -182190.22    167086.77   0.81742657   0.20892536   0.21676421   0.41437204 
 2752000    303.52465    302.53818    -2.536789   -182997.17    807.11139   -182190.06    166534.57   0.81803304   0.20879374   0.21707052   0.41463243 
 2754000    307.10921    306.18453    5.1782818   -183007.08    816.83913   -182190.24    165360.55   0.81942591   0.20875002   0.21735118    0.4151757 
 2756000    304.68452    304.22854   -5.4702165   -183001.87    811.62094   -182190.24    164393.38   0.82038763   0.20851942   0.21723252   0.41537986 
 2758000    304.76658    304.10924   -24.911702   -183001.32    811.30266   -182190.02    163695.85   0.82234996   0.20852388   0.21708263   0.41598549 
 2760000    306.52892    304.81643    35.888606   -183003.28     813.1893   -182190.09    164037.69   0.82327826   0.20884858   0.21781937   0.41664874 
 2762000    307.17743    306.41828   -74.364424   -183007.48    817.46272   -182190.01    164805.61   0.82348472   0.20877348   0.21769956   0.41665259 
 2764000    305.53218    305.12704   -287.63046    -183004.1    814.01795   -182190.08    165836.62   0.82545941   0.20856338   0.21762457   0.41721579 
 2766000    305.92826     305.5308   -296.98489   -183005.17     815.0951   -182190.08    165792.61   0.82652505   0.20891627   0.21759057   0.41767729 
 2768000    305.08412    305.20708    -236.9837   -183004.32    814.23149   -182190.09    165253.85    0.8268368   0.20906614    0.2174899   0.41779762 
 2770000    308.48778    306.43204   -97.135626   -183007.73    817.49944   -182190.23    164682.48   0.82669873   0.20911747    0.2174177   0.41774463 
 2772000    309.34948    307.29468   -197.79788   -183009.87     819.8008   -182190.07    163914.67   0.82608324   0.20893661   0.21738432   0.41746806 
 2774000    307.25027    304.71229   -39.659983   -183002.98    812.91149   -182190.07    163891.03   0.82729873   0.20892408   0.21726959    0.4178308 
 2776000    308.22433    305.40454   -17.352115   -183004.94    814.75828   -182190.18     164716.1   0.82696037   0.20875419   0.21755883   0.41775779 
 2778000    307.98672    306.58338    31.862595   -183007.91    817.90319   -182190.01    166022.97   0.82647589   0.20867664   0.21753987   0.41756413 
 2780000    307.76971    306.00852    -273.0516   -183006.45    816.36957   -182190.08    166640.88   0.82593634   0.20894004   0.21747565   0.41745068 
 2782000    307.29161    305.48746   -68.193801   -183004.92    814.97948   -182189.94    167242.37   0.82522756   0.20867333   0.21746666   0.41712251 
 2784000    306.20306     305.6745   -190.47448   -183005.29    815.47848   -182189.81    167517.35   0.82490898   0.20966332   0.21742225   0.41733152 
 2786000    308.80944    307.28981   -10.256355   -183009.74     819.7878   -182189.95       167389   0.82441607   0.20987702   0.21731661   0.41720323 
 2788000    307.91143    306.94912    12.522256   -183008.81     818.8789   -182189.93    165776.31   0.82408971   0.21005847   0.21712325   0.41709048 
 2790000    309.25516     306.6743   -49.615394   -183008.14    818.14575      -182190    164844.72     0.823632    0.2100557   0.21675176   0.41681315 
 2792000     308.8381    306.03946    25.353981   -183006.42    816.45211   -182189.97    164345.83    0.8231687   0.21009146    0.2169281   0.41672942 
 2794000    305.86112    304.83392   -137.42396   -183003.08    813.23598   -182189.85    165767.27   0.82266656   0.20972653   0.21719353   0.41652888 
 2796000    304.71698    304.01455   -66.283002    -183000.8    811.05007   -182189.75    166720.32    0.8221911   0.21021263   0.21695452   0.41645275 
 2798000    304.32083     304.9595   -143.37691   -183003.33    813.57099   -182189.76    166423.87   0.82219863   0.21024182    0.2173937   0.41661138 
 2800000    307.82969     305.6885    76.073019   -183005.49    815.51582   -182189.98    165469.23   0.82147282   0.21020386   0.21702932   0.41623533 
 2802000    306.25414    305.06614   -277.08566   -183003.77    813.85549   -182189.92    164363.49    0.8208883   0.21013161   0.21678061   0.41593351 
 2804000    310.68393     309.8726    38.108354   -183016.65    826.67817   -182189.97    163928.59   0.82030459    0.2101219   0.21749557   0.41597402 
 2806000    306.32523    304.73275    -95.96716   -183002.72    812.96608   -182189.76    163811.87    0.8199832   0.21008864   0.21791678   0.41599621 
 2808000    306.10505    305.51224    24.901875   -183004.98    815.04558   -182189.93    163918.98   0.81958376   0.21002413   0.21797744   0.41586177 
 2810000    306.89813    306.47109   -261.41415   -183007.55    817.60361   -182189.95    164828.84   0.81922903   0.20980277   0.21783392   0.41562191 
 2812000    302.36106    303.60884   -235.23659   -182999.89    809.96772   -182189.92    165505.22   0.81859736   0.20970018   0.21783712   0.41537822 
 2814000    303.74921    305.08231   -6.4359408   -183003.79    813.89864   -182189.89    165516.56   0.81805821   0.20953344   0.21761408   0.41506858 
 2816000    307.63503    305.51023   -119.73153   -183005.15    815.04023   -182190.11    165012.78   0.81769631   0.20963729   0.21743306   0.41492222 
 2818000     304.3242    303.18271   -210.87903    -182998.7    808.83089   -182189.87     165278.5   0.81723302   0.20951088   0.21731316   0.41468569 
 2820000     304.9486    304.94025   -54.471246   -183003.27    813.51963   -182189.75    165076.31   0.81794087   0.20943472   0.21717633   0.41485064 
 2822000    304.43158    305.59859    53.791652   -183005.12    815.27596   -182189.84    165268.66   0.81772547   0.20981677   0.21718456   0.41490893 
 2824000    307.47212    306.48423   -248.33705   -183007.38    817.63866   -182189.74    164965.57   0.81734655   0.20953815    0.2173624   0.41474903 
 2826000    304.22521    304.50704    -216.9326    -183002.1    812.36392   -182189.74    165778.61    0.8172113   0.20941304   0.21727477   0.41463304 
 2828000    307.00684    305.75084   -190.82877   -183005.32    815.68214   -182189.64    166939.96   0.81690473   0.20923729   0.21718302   0.41444168 
 2830000    309.71399    307.38177   -226.57015   -183009.81    820.03312   -182189.77    168182.31   0.81646451   0.20915909   0.21702867   0.41421742 
 2832000    307.93692    306.23306   -167.08288    -183006.7    816.96861   -182189.73    168295.33   0.81648872   0.20909891   0.21766683   0.41441815 
 2834000    307.61489    305.61949   -288.36589   -183005.01    815.33172   -182189.68     167693.4   0.81615291   0.20904007   0.21768073   0.41429123 
 2836000    306.32129      305.743   -48.017491   -183005.44    815.66123   -182189.78    166418.51   0.81612369    0.2090632   0.21741712   0.41420134 
 2838000     303.5715    305.21588    -166.2062   -183003.83    814.25496   -182189.58    165508.36   0.81565205   0.20899539   0.21719394   0.41394713 
 2840000    304.06065     304.5695   -106.24147   -183002.12    812.53055   -182189.59     165034.8   0.81529132   0.20890556   0.21708275   0.41375988 
 2842000    304.32887      306.536   -284.31635   -183007.36    817.77678   -182189.58    165525.01   0.81586782   0.20877383   0.21692537   0.41385567 
 2844000    307.10515    307.76159   -114.79737   -183010.79    821.04641   -182189.75    166089.91    0.8159427   0.20857137   0.21672895   0.41374767 
 2846000    304.76386    305.61973    50.136819   -183005.03    815.33236    -182189.7    166461.44   0.81728175   0.20872699   0.21656343   0.41419072 
 2848000    305.93457    306.32975   -184.25763   -183006.87    817.22655   -182189.64    166412.83   0.81918019   0.20863845    0.2165755   0.41479805 
 2850000    303.62443     303.8819    44.025001   -183000.35    810.69616   -182189.66    165283.56   0.82166192   0.20862294   0.21649435   0.41559307 
 2852000    305.61302    304.44672   -50.949636   -183001.83    812.20299   -182189.62    164507.57   0.82268687   0.20854028   0.21611659   0.41578124 
 2854000    305.98273    305.28893   -181.25881   -183004.13    814.44985   -182189.68    164567.23   0.82316619   0.20958455   0.21630246   0.41635107 
 2856000    303.34214    303.93829    102.39602   -183000.41     810.8466   -182189.57    164365.92   0.82302392   0.20953308    0.2161615    0.4162395 
 2858000    304.02922    306.24262   -157.45024   -183006.64    816.99411   -182189.64     163968.2   0.82253159   0.20949257   0.21602727   0.41601714 
 2860000    308.63638    307.92936   -343.90462   -183011.04    821.49398   -182189.54    164015.35   0.82195437   0.20929223   0.21583338   0.41569333 
 2862000    304.96703     306.4635   -74.008464   -183007.26    817.58337   -182189.67    164122.92    0.8219371   0.20932155   0.21622751   0.41582872 
 2864000    306.49079    307.19337     -78.7881   -183009.16     819.5305   -182189.63    164981.06   0.82155257   0.20937492   0.21604445   0.41565731 
 2866000    305.44537    305.02958    -123.2788   -183003.33    813.75797   -182189.57    166177.88   0.82100587   0.20931289   0.21596142   0.41542673 
 2868000     305.5246    305.13677   -64.956907   -183003.66    814.04391   -182189.61    166959.53   0.82057445   0.20966563   0.21675158   0.41566388 
 2870000    303.73882    302.68194   -179.33137   -182997.02    807.49492   -182189.52    167352.02    0.8202974   0.20962002    0.2167705   0.41556264 
 2872000    304.15561    304.71752   -14.435386   -183002.55    812.92544   -182189.63     167217.3   0.81996751   0.20975548   0.21642786   0.41538362 
 2874000    303.79347    304.85347   -188.25098    -183002.8    813.28812   -182189.52    166300.95   0.81934216    0.2097117   0.21664772   0.41523386 
 2876000    308.17004    305.85764    32.432473   -183005.59    815.96706   -182189.62    165532.84   0.81936707   0.20983035   0.21638355   0.41519366 
 2878000    308.24261    306.03527   -204.26539   -183006.06    816.44094   -182189.62    164994.06   0.81925514   0.20994573   0.21615522    0.4151187 
 2880000    304.72298    305.00158   -5.0648043   -183003.32    813.68326   -182189.64    165031.17   0.81887081   0.20996965   0.21628941   0.41504329 
 2882000    306.17762    305.90655    38.850705   -183005.82    816.09754   -182189.72     165488.5   0.81845917   0.21018409    0.2163845   0.41500926 
 2884000    305.10629    306.14407   -47.552742   -183006.44     816.7312   -182189.71    164718.75   0.81789263    0.2102964   0.21693052   0.41503985 
 2886000    306.48176     306.2944   -224.67273   -183006.79    817.13223   -182189.66    164839.71   0.81748791   0.21044281   0.21683699   0.41492257 
 2888000    307.42007    306.75604   -47.460851   -183008.04    818.36381   -182189.67    164748.67   0.81713226   0.21018018   0.21680194   0.41470479 
 2890000    304.98913    305.63405   -28.651372   -183004.91    815.37056   -182189.54    165245.77   0.81672554   0.21016859   0.21795244   0.41494886 
 2892000    308.71922    307.97889   -100.60711   -183011.23    821.62612    -182189.6    165570.22   0.81626738   0.21005817   0.21775525    0.4146936 
 2894000     305.8659    306.30925   -121.28941   -183006.73    817.17185   -182189.56    166303.63   0.81590332   0.20984938   0.21840392   0.41471887 
 2896000    304.73923    304.86008   -287.56116   -183002.73    813.30577   -182189.42    166770.72   0.81648296   0.21004855   0.21894132   0.41515761 
 2898000    305.69514     304.0184   -161.33918   -183000.61    811.06032   -182189.55    167188.82   0.81826073   0.20990325   0.21876706   0.41564368 
 2900000    303.68477    302.62828   -58.195164   -182996.77    807.35176   -182189.42    167873.12   0.81992872   0.21026402   0.21867938   0.41629071 
 2902000    306.40604    305.80341   -58.865307   -183005.31    815.82237   -182189.48    168106.65   0.81959924   0.21060334   0.21856617   0.41625625 
 2904000    308.73538    307.73232   -213.19736   -183010.62    820.96833   -182189.65    167789.14   0.82004787   0.21036525   0.21864074   0.41635129 
 2906000    307.69651    303.86532     117.6889   -183000.06    810.65194   -182189.41    167225.91   0.81941202   0.21027302   0.21841796   0.41603433 
 2908000    306.84227    305.00254   -165.91882   -183003.02    813.68581   -182189.34    166848.92   0.81888936   0.21021001   0.21830677   0.41580204 
 2910000    309.10985    307.01709    141.30623   -183008.56    819.06022    -182189.5     166802.5   0.81921002   0.21035521   0.21819635   0.41592053 
 2912000    306.61537    305.74617   -11.269117   -183005.17    815.66967    -182189.5    166229.37   0.81936562   0.21039265   0.21804524    0.4159345 
 2914000    309.55215    308.15608    45.402481   -183011.59    822.09883   -182189.49     165693.3   0.81934091   0.21018953   0.21795997   0.41583014 
 2916000    305.67061    306.38553   -28.758884   -183006.84    817.37535   -182189.46    165322.37   0.81942656   0.21016161   0.21767574   0.41575464 
 2918000    307.92424    306.56885   -31.844067   -183007.32    817.86441   -182189.46     165718.4    0.8187994   0.21026095    0.2176404   0.41556692 
 2920000    307.48895    306.05049   -179.11809   -183005.94    816.48155   -182189.46    165112.93   0.81876055   0.21020549   0.21727905   0.41541503 
 2922000    307.67224    306.56672   -211.06623   -183007.36    817.85875    -182189.5    165266.17   0.81840082   0.21020335   0.21713739   0.41524718 
 2924000    309.65226     309.5658   -89.299053   -183015.22    825.85968   -182189.36    165586.62   0.81807036   0.21026251   0.21703354   0.41512214 
 2926000    307.29658    305.62062   -267.62346   -183004.67    815.33472   -182189.33    166359.85   0.81752078   0.21020968   0.21679206   0.41484084 
 2928000    306.21983    306.02425    140.59579   -183005.66    816.41152   -182189.25    166995.77   0.81769161    0.2103678   0.21701235   0.41502392 
 2930000    304.67908    304.73277   -180.62355   -183002.34    812.96613   -182189.38    167100.48   0.81820153   0.21015846   0.21719716   0.41518572 
 2932000     304.3242    303.85868    -175.7599   -182999.96    810.63423   -182189.33    166714.39    0.8181982   0.21008783   0.21716182   0.41514929 
 2934000    307.86305    306.53436   -19.323784    -183007.2     817.7724   -182189.43    165637.47   0.81790103   0.21000385     0.216994   0.41496629 
 2936000    306.08433    304.48247    -55.44712   -183001.62    812.29838   -182189.32    164976.24   0.81738405    0.2098319   0.21724085   0.41481893 
 2938000    306.25795    306.03175   -222.11733   -183005.69    816.43154   -182189.26    164719.71   0.81705826   0.20979164   0.21700795   0.41461929 
 2940000    307.73525    304.56334    -108.3138   -183001.72    812.51412   -182189.21    165720.82   0.81734334   0.20969688   0.21703692   0.41469238 
 2942000    306.68506    305.74773   -20.830511   -183004.94    815.67383   -182189.27    166640.41    0.8169833   0.20954882   0.21758986   0.41470733 
 2944000    307.08828    305.35678    -66.17029   -183003.85    814.63087   -182189.22     167039.1   0.81662886   0.20944638   0.21844862   0.41484129 
 2946000    302.46492    303.69781    115.87661   -182999.44    810.20507   -182189.24    167749.23    0.8164629   0.20936468   0.21838926   0.41473895 
 2948000    305.59107    306.21151   -49.522708   -183006.09    816.91109   -182189.18    167539.08   0.81609505   0.20954101   0.21836686   0.41466764 
 2950000    305.59817    305.10258   -27.035571   -183003.27    813.95271   -182189.32    166664.55   0.81548623   0.20975372   0.21867424   0.41463806 
 2952000     306.6074    307.16281   -87.372978   -183008.67    819.44899   -182189.22    166189.63   0.81595775   0.20959878   0.21812276   0.41455976 
 2954000    304.72003     304.5649    13.933066   -183001.73    812.51829   -182189.21    165773.44   0.81726376   0.20946545   0.21798642   0.41490521 
 2956000    306.86494    306.45432   -104.66816   -183006.89    817.55888   -182189.33    166178.74   0.81935091    0.2093334   0.21798028   0.41555487 
 2958000    302.65891    305.49687    45.394613   -183004.17    815.00459   -182189.16    166991.79    0.8190881   0.20909161   0.21784694   0.41534222 
 2960000    302.49546    304.89931   -183.88832   -183002.67    813.41041   -182189.26    167295.07   0.81859604   0.20914474   0.21780562   0.41518213 
 2962000    305.89068    306.92442   -195.17823   -183008.12    818.81302   -182189.31    166663.94   0.81984371   0.20945509   0.21764814   0.41564898 
 2964000    306.73562    306.01215    128.57055   -183005.64    816.37927   -182189.26    166369.22   0.81946119   0.20938522   0.21753975   0.41546205 
 2966000    305.74146    305.46068   -85.793808   -183004.26    814.90805   -182189.35    166482.31   0.81892108    0.2093311   0.21738469   0.41521229 
 2968000    305.32697    306.93712     33.11197   -183008.12     818.8469   -182189.28    166398.02   0.81873832   0.20936266   0.21719169   0.41509756 
 2970000    305.07498    304.74965   -201.81671   -183002.28    813.01115   -182189.27    166445.14   0.81962281   0.20939674   0.21699219   0.41533725 
 2972000     306.0671    306.68955   -86.861081   -183007.43    818.18641   -182189.24    166991.47   0.82004913    0.2092925    0.2168574   0.41539968 
 2974000    304.32942    308.10236   -96.869322   -183011.11    821.95552   -182189.16    167326.97   0.81935539   0.20937394   0.21681152   0.41518028 
 2976000    304.59612    305.64016     99.91471   -183004.67    815.38686   -182189.28    167204.74   0.81911785   0.20915148   0.21655266   0.41494067 
 2978000    304.83714    304.50721   -80.933572   -183001.52    812.36436   -182189.16    166351.67    0.8188164   0.20915614   0.21647686   0.41481647 
 2980000    303.00873    305.73031    48.619506    -183004.8    815.62736   -182189.17    165402.84   0.81919978    0.2089475    0.2163235   0.41482359 
 2982000    305.76884    306.95287   -166.69835   -183008.15     818.8889   -182189.26    164993.15   0.81937319   0.20871442     0.216223   0.41477021 
 2984000    301.90571    304.15738    -195.4824   -183000.54     811.4311   -182189.11    164972.05    0.8215716   0.20857502   0.21611858   0.41542174 
 2986000    304.60616    305.57963   -215.01096   -183004.63    815.22536    -182189.4    164510.38    0.8221007   0.20867425   0.21656552   0.41578016 
 2988000    303.60118     303.5869   -288.46231   -182999.21    809.90917    -182189.3    163998.08   0.82194255   0.20864244    0.2167949    0.4157933 
 2990000    302.32606    305.08673   -103.83913   -183002.97    813.91042   -182189.06    164126.79   0.82144054   0.20853743   0.21671746   0.41556514 
 2992000    302.61551    304.57194    -316.9689   -183001.59    812.53707   -182189.05    165366.08   0.82144545   0.20845023   0.21674752   0.41554773 
 2994000    304.39972    306.24681     -145.498   -183006.13    817.00527   -182189.12    166129.97   0.82102879   0.20861038   0.21718041   0.41560653 
 2996000    306.24173    307.03883    29.093331   -183008.17    819.11823   -182189.05    166578.51   0.82053085   0.20851328   0.21735853   0.41546755 
 2998000    304.74423      307.407   -181.42125   -183009.26    820.10042   -182189.16     165598.2   0.82020585   0.20835653   0.21747751   0.41534663 
 3000000    304.08005    306.82983   -54.149802   -183007.62    818.56066   -182189.06    164732.59   0.81952463   0.20843375   0.21725762     0.415072 
 3002000    302.53803    305.86865     5.913853   -183005.23    815.99643   -182189.24    164182.83   0.81975458   0.20927189   0.21706151   0.41536266 
 3004000    304.58262    305.75838   -90.393462    -183004.7    815.70224      -182189    163975.84   0.82018977   0.20900637   0.21704406    0.4154134 
 3006000    301.95744    304.54287   -37.510035   -183001.54     812.4595   -182189.08    164153.69   0.81988118   0.20917248   0.21701981   0.41535782 
 3008000    305.83143    307.33986   -70.804039   -183009.02    819.92133    -182189.1    164248.39    0.8196149   0.20898932   0.21693811   0.41518078 
 3010000       305.24    307.02355   -39.570392   -183008.15    819.07747   -182189.07    163861.04   0.81907114   0.20914554   0.21677552    0.4149974 
 3012000    304.02856    305.42958   -246.03385   -183003.95    814.82507   -182189.12    163629.28   0.81861485   0.20900383   0.21757326   0.41506398 
 3014000    303.91189    304.41772   -10.919341   -183001.08    812.12563   -182188.96    163764.91   0.81825295   0.20913978   0.21758445    0.4149924 
 3016000    304.23133    306.25628    -133.8752   -183006.19    817.03055   -182189.16    164095.77   0.81767269   0.20894438   0.21750101   0.41470603 
 3018000    306.73852    307.31993    30.738768    -183009.1    819.86815   -182189.23    164127.82    0.8174849   0.20925854   0.21767747   0.41480697 
 3020000    303.77257    305.34357   -189.83048    -183003.5    814.59561    -182188.9    164898.41   0.81787137   0.20916858   0.21809576   0.41504524 
 3022000    304.59235    305.40796   -83.114827   -183003.94     814.7674   -182189.17    166078.81    0.8172944   0.20921871   0.21809961   0.41487091 
 3024000    302.84751    304.53118    -25.65655   -183001.42    812.42831   -182188.99    166700.35   0.81675749   0.20902281   0.21806021    0.4146135 
 3026000     302.4922    305.45689   -133.99143   -183003.81    814.89794   -182188.91    166888.08   0.81651392   0.20886126   0.21794948   0.41444155 
 3028000    303.62992    304.17601    -222.0827   -183000.45     811.4808   -182188.97    166293.88    0.8157472   0.20908792   0.21782301   0.41421938 
 3030000     302.3031    304.59995    -23.02746   -183001.49    812.61179   -182188.88    165313.81   0.81551851   0.20884239   0.21853768   0.41429953 
 3032000    305.70114    307.43499   -220.73398   -183009.16     820.1751   -182188.99    164494.04    0.8149999   0.20949428   0.21852589   0.41434002 
 3034000    307.90646     306.4703   -184.09988   -183006.62     817.6015   -182189.02    164497.92   0.81445197   0.20966094   0.21838123   0.41416471 
 3036000    303.78769    305.15517   -75.979528   -183002.82      814.093   -182188.73    164830.61   0.81407313   0.20960869   0.21853871   0.41407351 
 3038000    305.46432    304.21229   -218.17973   -183000.44     811.5776   -182188.86    165142.32   0.81381586   0.20944325   0.21904395   0.41410102 
 3040000    302.86763    304.82166   -84.643679   -183002.15    813.20327   -182188.95    165477.28    0.8133948   0.20934939   0.21893293   0.41389238 
 3042000    304.07851    304.05973   -123.26342   -183000.07    811.17058    -182188.9    165210.84   0.81326628   0.20926391   0.21894329   0.41382449 
 3044000    305.91062    304.77272   0.56430411   -183001.96    813.07271   -182188.88     165307.2   0.81403707   0.20921166   0.21872536   0.41399136 
 3046000    308.01765    307.09647   -342.21795   -183008.16    819.27199   -182188.88    165351.02   0.81386559   0.20909464   0.21872556   0.41389526 
 3048000    307.22534    306.28449   -186.29964   -183006.01    817.10581    -182188.9    165793.04   0.81316744   0.20893295   0.21883173   0.41364404 
 3050000    307.34856    304.98511   -237.02017   -183002.52    813.63931   -182188.88       166058   0.81310836   0.20882241    0.2187663   0.41356569 
 3052000    306.89505    306.21814   -204.14024   -183005.91     816.9288   -182188.98    165280.47   0.81325588   0.20882689   0.21857507   0.41355261 
 3054000    305.42329    305.03453   -93.563993   -183002.73    813.77116   -182188.96    165254.23   0.81342487   0.20887622   0.21861375   0.41363828 
 3056000    308.17039    306.41171   -116.34699   -183006.36     817.4452   -182188.92    165740.75   0.81341406   0.20873619   0.21851256   0.41355427 
 3058000    307.53264    306.41513   -184.59896   -183006.43    817.45432   -182188.98    165682.65   0.81355007   0.20863495   0.21857178    0.4135856 
 3060000    304.32226    304.32465   -301.08493   -183000.81    811.87734   -182188.94    165425.56   0.81357615   0.20846586   0.21848278   0.41350827 
 3062000    307.23812    305.94783   -116.67072   -183005.13    816.20766   -182188.93    165200.06    0.8137204   0.20823122   0.21843285   0.41346149 
 3064000    306.57702    305.20945    29.677837   -183003.09    814.23781   -182188.85    165391.62   0.81430915   0.20814833   0.21839898   0.41361882 
 3066000    306.20125    305.23524   -16.036767   -183003.13    814.30662   -182188.82    165870.15   0.81503592   0.20800191   0.21838283   0.41380689 
 3068000    304.83442    305.40002   -93.481049    -183003.7    814.74623   -182188.96    166308.01   0.81630964    0.2078629   0.21803078   0.41406778 
 3070000    306.61095    307.11704     -101.462   -183008.17    819.32688   -182188.84    166961.89    0.8160367   0.20805758   0.21797769   0.41402399 
 3072000    302.72339    305.13754    93.917464   -183002.74    814.04597   -182188.69    167510.51   0.81548143   0.20807756   0.21850235   0.41402045 
 3074000    307.22843    307.40426   -207.82431    -183008.9    820.09313   -182188.81    167610.76   0.81524148   0.20784823   0.21833796   0.41380922 
 3076000    302.65101    303.39301   -205.56295   -182998.17    809.39192   -182188.78    167466.31   0.81574535    0.2077055   0.21836058   0.41393715 
 3078000    302.53528    304.69671   -95.321205   -183001.64    812.86992   -182188.77    166749.95    0.8155049   0.20774895   0.21822643   0.41382676 
 3080000    305.97121     306.2555   -148.97122   -183005.92    817.02845   -182188.89    165492.99   0.81490583    0.2076234   0.21817203   0.41356709 
 3082000    309.60402    307.50477   -250.21079   -183009.18    820.36126   -182188.82    165342.79   0.81453639   0.20770483   0.21815013   0.41346378 
 3084000    307.01145    307.42562   -116.03013      -183009    820.15012   -182188.85    165889.46     0.814252   0.20838032   0.21792403   0.41351878 
 3086000    307.43953    305.63679   -141.68552   -183004.11    815.37788   -182188.74    166055.31    0.8138658   0.20904484   0.21806959   0.41366008 
 3088000    302.84318    303.68615   -146.97929   -182998.88    810.17395   -182188.71    165982.11   0.81336442   0.20897256   0.21789085   0.41340927 
 3090000    304.27248    304.81406    8.3494607   -183001.89    813.18299   -182188.71    165697.74    0.8128327   0.20879892   0.21786969   0.41316711 
 3092000    306.81343    305.92337   -48.630337   -183004.75     816.1424   -182188.61    165158.57    0.8123196   0.20872542   0.21847489    0.4131733 
 3094000    306.32211    305.94943   -105.32922   -183005.17    816.21194   -182188.96    165180.01   0.81177732   0.20862628   0.21901877   0.41314079 
 3096000    305.66182    306.35532    74.736326   -183006.12    817.29476   -182188.83     165312.4    0.8121164   0.20849065    0.2188805   0.41316252 
 3098000    306.15885    305.42889   -11.644574   -183003.48    814.82323   -182188.66    165086.83   0.81180216   0.20846737   0.21863463   0.41296806 
 3100000    309.04413      307.526   -170.43354   -183009.16    820.41789   -182188.74    165157.65   0.81210209   0.20855327   0.21943982   0.41336506 
 3102000    305.35995    305.15163     -165.573   -183002.71    814.08355   -182188.63    165806.35   0.81256654   0.20874295   0.21926793   0.41352581 
 3104000     305.6365    305.48484   -85.375264   -183003.63    814.97249   -182188.66    166101.64   0.81252146   0.20851291   0.21931761   0.41345066 
 3106000    304.27797    304.98198   -60.183849   -183002.29    813.63096   -182188.66    166548.91    0.8121818   0.20861038   0.21940223   0.41339814 
 3108000    302.76626     304.2381    -163.3747    -183000.2    811.64645   -182188.55    166233.01   0.81166179   0.20854493    0.2194161   0.41320761 
 3110000    304.55828    304.25421   -211.82975   -183000.24    811.68942   -182188.55    165912.31   0.81194621   0.20847943   0.22004786   0.41349117 
 3112000    307.32318    306.45251   -233.92911   -183006.13    817.55405   -182188.58     165361.1   0.81324685   0.20861722   0.21986504   0.41390971 
 3114000    305.69891      305.992   -232.43541   -183004.94    816.32551   -182188.62    165165.49   0.81535206   0.20871739   0.21977274   0.41461406 
 3116000    307.17946    306.82067   -122.96758   -183007.14    818.53623   -182188.61    164806.26   0.81503347   0.20855824   0.21961785   0.41440319 
 3118000    306.95478     305.7598   -145.91433   -183004.22    815.70603   -182188.51    164162.19   0.81532941     0.208384    0.2199149   0.41454277 
 3120000    308.52337    306.46026   -139.76426   -183006.25    817.57472   -182188.67    164577.52   0.81519147    0.2085285    0.2197836   0.41450119 
 3122000    303.76103    303.86378   -221.71285   -182999.15    810.64782    -182188.5    165243.22   0.81460782   0.20840638    0.2195144    0.4141762 
 3124000    305.37332    307.54791    -101.4733   -183008.94    820.47634   -182188.46    166826.98   0.81418938   0.20837695   0.21952374   0.41403003 
 3126000    300.80166    304.62737    31.182657   -183001.19    812.68493    -182188.5    167156.41   0.81438938   0.20822969   0.21935579   0.41399162 
 3128000    307.11441     307.1404   -192.54326   -183007.75    819.38921   -182188.37    166477.56   0.81439491   0.20814175   0.21927075    0.4139358 
 3130000    304.57326    305.81885   -421.48237    -183004.5    815.86357   -182188.64    165411.84   0.81422932   0.20793913   0.21923618   0.41380154 
 3132000    306.28346    306.23468   -179.12033   -183005.61    816.97293   -182188.64    164732.77   0.81438276   0.20792554   0.22004039   0.41411623 
 3134000    303.72968    305.40818   -137.94833   -183003.08    814.76797   -182188.32    164141.29   0.81416301   0.20783487   0.22029803   0.41409864 
 3136000    306.08193    306.34331   -220.08697   -183005.77    817.26271   -182188.51    164253.11   0.81367259   0.20770405   0.22020952   0.41386206 
 3138000    304.67343    306.34304   -75.657066   -183005.72    817.26199   -182188.45    164160.22   0.81325403   0.20806043   0.22004697   0.41378714 
 3140000    305.96479    307.08514   -99.979766   -183007.65    819.24178   -182188.41    163938.79   0.81288879   0.20792789   0.22019755   0.41367141 
 3142000    304.33468    305.27797    6.2966341   -183002.96    814.42061   -182188.53    163592.36   0.81328029   0.20771022   0.22017377   0.41372143 
 3144000    303.60106    306.31759   -364.46382   -183005.73     817.1941   -182188.54    163679.75   0.81263562   0.20768552   0.22020754   0.41350956 
 3146000    304.85839     304.7054   -305.10969   -183001.28    812.89312   -182188.39    164176.16   0.81258122   0.20760422    0.2209595   0.41371498 
 3148000      308.914    308.29004    29.490298   -183010.95    822.45622   -182188.49    165069.66   0.81237641   0.20733828   0.22123515   0.41364995 
 3150000    302.53651    305.52695   -85.142425   -183003.39    815.08483    -182188.3    165689.49    0.8118933   0.20726255   0.22104502   0.41340029 
 3152000    304.24735    304.71146   -354.01265   -183001.24    812.90929   -182188.33    166583.19   0.81174606   0.20712029   0.22084765     0.413238 
 3154000    303.76858     303.6169   -413.89456   -182998.42    809.98921   -182188.43    166214.46    0.8119543   0.20691245   0.22084483   0.41323719 
 3156000     307.2898    306.15094   -189.81952   -183005.22    816.74952   -182188.47    165439.83     0.811811   0.20678818   0.22067049   0.41308989 
 3158000    308.18907    306.99166   -57.486902   -183007.37    818.99238   -182188.38    164827.35    0.8113572   0.20684234   0.22055265    0.4129174 
 3160000     306.1944    306.36596   -28.857262   -183005.98    817.32316   -182188.66    164303.66   0.81212546   0.20669876   0.22072362   0.41318261 
 3162000    306.45187    306.10544   -156.53445   -183005.03    816.62813   -182188.41    164033.54   0.81317821   0.20655844   0.22064719   0.41346128 
 3164000    309.64724    306.85624    55.772893   -183007.08    818.63112   -182188.44    164313.11    0.8136647   0.20647142   0.22050723   0.41354778 
 3166000    305.96625    307.20278   -227.00245   -183008.05    819.55562   -182188.49    164798.34   0.81380105   0.20627597   0.22040385   0.41349362 
 3168000    301.29255    303.57873    100.50469   -182998.22    809.88737   -182188.34    165626.33   0.81461943    0.2066358   0.22047037   0.41390853 
 3170000    304.81459    304.46787    33.809334   -183000.62    812.25942   -182188.36    165646.01   0.81538116    0.2063873   0.22094963   0.41423936 
 3172000    303.45442    306.01081     44.37684   -183004.65    816.37567   -182188.27    165019.08   0.81577741   0.20745569   0.22082068   0.41468459 
 3174000    305.56688     306.9074    51.660639   -183007.15     818.7676   -182188.38     164436.7   0.81543289   0.20732364   0.22068129   0.41447928 
 3176000    305.36443    305.65328    33.828578   -183003.77    815.42186   -182188.35    163582.64   0.81489699   0.20723437   0.22061127   0.41424754 
 3178000    309.76565    307.07185   -232.11846   -183007.67    819.20631   -182188.46     163340.2    0.8154129   0.20716797   0.22066686   0.41441591 
 3180000    306.38606    305.03566   -129.34477    -183002.1    813.77418   -182188.32    163758.02   0.81614851   0.20703937   0.22118368   0.41479052 
 3182000    309.42336    308.63025   -142.50322   -183011.71    823.36383   -182188.35       165166   0.81565016   0.20689981   0.22140883   0.41465293 
 3184000     306.0646    307.03728    -262.5629   -183007.31    819.11409   -182188.19    166757.64   0.81512828    0.2067213   0.22125176   0.41436711 
 3186000    304.74642    304.93291   -38.167966   -183001.72    813.50005   -182188.22    168020.75   0.81503212   0.20656192   0.22122675    0.4142736 
 3188000    306.60036    306.95745   -159.55349   -183007.09    818.90114   -182188.19    168475.76    0.8148163   0.20642195   0.22119554    0.4141446 
 3190000    307.03942    305.68388   -231.90733   -183003.79     815.5035   -182188.29    167706.57   0.81496253   0.20634781   0.22090367   0.41407134 
 3192000    303.75898    303.62354    90.684129   -182998.31    810.00692    -182188.3    166679.23   0.81538701   0.20613663   0.22091944   0.41414769 
 3194000    304.11953    305.23544    -141.0095   -183002.66    814.30714   -182188.35    166120.63   0.81631499   0.20598132   0.22103839    0.4144449 
 3196000    305.88133    307.37957   -117.94281   -183008.36    820.02726   -182188.33     165756.6   0.81530035   0.20584588   0.22082959   0.41399194 
 3198000    307.60678    306.16375   -148.90271   -183005.05     816.7837   -182188.27    165403.69   0.81474231   0.20589143   0.22070982   0.41378119 
 3200000    307.62539    305.72821   -127.95101   -183003.87    815.62177   -182188.25    165626.99   0.81470184   0.20567662   0.22101267   0.41379704 
 3202000    304.76735    306.24789   -352.96869   -183005.26    817.00815   -182188.25    165147.43   0.81407817   0.20545362   0.22080813   0.41344664 
 3204000    307.24663      304.424    107.63233   -183000.28     812.1424   -182188.14    164435.07   0.81414968    0.2054709   0.22099429   0.41353829 
 3206000    307.80669    306.33226   -384.51525   -183005.47    817.23323   -182188.24    164531.79   0.81451334   0.20569015   0.22109247   0.41376532 
 3208000    302.53252    302.71877   -182.43854   -182995.65    807.59316   -182188.06    165302.16    0.8150468    0.2056261   0.22096622   0.41387971 
 3210000     303.9766    304.15126   -27.004567   -182999.53    811.41478   -182188.12    165752.67   0.81460278    0.2056011    0.2210348   0.41374623 
 3212000    304.00718    305.61985    14.010813   -183003.53    815.33269    -182188.2    165340.02    0.8152945   0.20547624   0.22160067    0.4141238 
 3214000    304.66647    304.95764   -36.756903   -183001.58    813.56603   -182188.02    164674.33      0.81622   0.20539956   0.22172014   0.41444656 
 3216000    302.19415    303.52453   -57.945018   -182997.71    809.74278   -182187.97    164076.04   0.81739588   0.20539772   0.22188977   0.41489446 
 3218000    304.07129     304.3683   -179.27032   -183000.02     811.9938   -182188.02     164065.9    0.8174608   0.20581616   0.22171055   0.41499584 
 3220000    305.32628    305.72081   -228.06457    -183003.7    815.60202    -182188.1    163755.76   0.81748671   0.20560335   0.22154104   0.41487703 
 3222000    306.96051    308.65274    52.391299   -183011.43    823.42383   -182188.01    163762.52   0.81720015   0.20562733   0.22133041   0.41471929 
 3224000    307.54326    307.15269    14.566348   -183007.52    819.42198   -182188.09    164132.08    0.8166869   0.20566155   0.22157356   0.41464067 
 3226000    304.68083    305.50877    -298.6193   -183003.05    815.03633   -182188.01    164490.21   0.81651821   0.20544113   0.22168397   0.41454777 
 3228000    306.36429     305.8355    146.07904   -183003.98      815.908   -182188.08    164429.15   0.81601957   0.20538396   0.22188133   0.41442829 
 3230000    308.79431     307.3215   -80.386683   -183008.06    819.87233   -182188.19    164203.87   0.81604223   0.20528236   0.22168843   0.41433767 
 3232000    307.60784    306.42568  -0.70338951   -183005.39    817.48247   -182187.91    163679.94   0.81620312   0.20517899   0.22175015   0.41437742 
 3234000    308.97777    305.37721   -195.97196   -183002.66    814.68536   -182187.97    164300.11   0.81683478   0.20499522   0.22163705   0.41448902 
 3236000    306.30883    305.03031   -27.404819   -183001.65    813.75991   -182187.89    165386.67    0.8171495   0.20492041   0.22156995   0.41454662 
 3238000    304.26302    303.86181   -191.19399   -182998.64    810.64257      -182188    166191.16   0.81694581   0.20473991   0.22149451   0.41439341 
 3240000    308.44276    306.95703   -126.22998   -183006.83    818.90001   -182187.93    166032.58   0.81647346   0.20577847   0.22133488   0.41452894 
 3242000    307.79547     307.1167   -103.39367   -183007.37    819.32598   -182188.04    165510.69   0.81626104   0.20526748   0.22166201   0.41439684 
 3244000      309.315    306.96986   -205.72958   -183006.94    818.93424   -182188.01    165368.13   0.81614313   0.20521736    0.2221712   0.41451057 
 3246000    307.67394    305.38061   -186.70033   -183002.78    814.69444   -182188.08     165587.2   0.81658669   0.20517746   0.22247243   0.41474552 
 3248000    307.50821    307.08164   -103.30457   -183007.24    819.23245   -182188.01    165916.45   0.81802661    0.2052567   0.22241625   0.41523319 
 3250000    311.11528    308.58461    110.63204   -183011.18    823.24205   -182187.94    166189.39   0.81839566   0.20511739   0.22229714   0.41527006 
 3252000    309.40257     307.1211   -143.74292   -183007.34    819.33771      -182188    166139.97   0.81791035   0.20514982   0.22221255    0.4150909 
 3254000    306.74091    303.97498   0.33885265   -182998.97    810.94448   -182188.03       165873   0.81793932   0.20505675   0.22215717   0.41505108 
 3256000    306.38396    306.59438    19.295028    -183005.9    817.93252   -182187.97    166049.33   0.81877483   0.20517175   0.22224878   0.41539845 
 3258000    303.65754    302.70813   -149.40135   -182995.38    807.56478   -182187.82    166377.23   0.81881135   0.20489602   0.22226949   0.41532562 
 3260000    306.11558    305.63732   -255.30962   -183003.28    815.37928    -182187.9     166687.5   0.81902181   0.20505583   0.22200609   0.41536124 
 3262000    308.34259    306.69123   -88.462554   -183006.16     818.1909   -182187.97    166498.07    0.8199095     0.205201   0.22205536   0.41572195 
 3264000    303.00547    303.98581   -64.364671   -182998.93    810.97339   -182187.96    166465.97   0.81992325   0.20507194   0.22183217   0.41560912 
 3266000    305.26981    304.97613    42.439713   -183001.66    813.61535   -182188.04    165943.62   0.81975188   0.20497088   0.22174375   0.41548884 
 3268000    307.45593    306.15395   -224.59396   -183004.71    816.75756   -182187.96    166048.21   0.82012108   0.20521461   0.22183887   0.41572485 
 3270000    303.93624     305.9908   -205.56875   -183004.28     816.3223   -182187.96    166889.92   0.82198596   0.20509103   0.22203859   0.41637186 
 3272000    303.80215    303.12937   -167.73746   -182996.58    808.68858   -182187.89    167991.44   0.82166216   0.20504375   0.22234258    0.4163495 
 3274000    306.10594    305.86478    102.25849   -183003.92    815.98611   -182187.93    168645.26   0.82122566   0.20494204   0.22240629   0.41619133 
 3276000    301.67922    302.62211   -58.881997    -182995.1    807.33531   -182187.76    169600.62   0.82081638   0.20490026   0.22237517    0.4160306 
 3278000    303.58686    304.52455   -166.73423   -183000.25    812.41064   -182187.84    169534.97   0.82030427   0.20489578   0.22270665    0.4159689 
 3280000    307.17689     305.7638   -34.402092   -183003.48    815.71671   -182187.76    169143.77   0.82000378   0.20491049    0.2225905   0.41583492 
 3282000    309.63343    306.83176   -246.18301   -183006.41     818.5658   -182187.84    167710.18   0.82045763   0.20503464   0.22256508   0.41601912 
 3284000    302.92236    303.72585    44.189597    -182998.2    810.27987   -182187.92    166476.61   0.82048925   0.20492105   0.22231811   0.41590947 
 3286000    306.07933    306.00975   -222.02371   -183004.23    816.37286   -182187.86    165519.68   0.82019041   0.20469719   0.22241971   0.41576911 
 3288000    307.94369    306.21036   -284.77221   -183004.87    816.90804   -182187.96    165354.18   0.81968399   0.20478247   0.22234792    0.4156048 
 3290000    307.40708    306.06888    -64.74165   -183004.41     816.5306   -182187.88    165299.62   0.81949985    0.2050299   0.22261045    0.4157134 
 3292000    303.04328    304.20548   -13.727886   -182999.45    811.55941   -182187.89    165269.11   0.81952156   0.20523248    0.2225467   0.41576692 
 3294000     308.3268    306.92737   -88.380594   -183006.69    818.82088   -182187.87    164801.06    0.8189201   0.20509599   0.22240456   0.41547355 
 3296000    303.70061    305.86236   -205.53629   -183003.85    815.97965   -182187.88    164937.82   0.82004514   0.20553322   0.22280875   0.41612904 
 3298000    307.90325    306.56543    -124.1432    -183005.6     817.8553   -182187.75    164903.71    0.8220813   0.20555756   0.22274736   0.41679541 
 3300000    306.83648    306.52972   -55.529618   -183005.63    817.76004   -182187.87    164831.94   0.82243494   0.20548666   0.22252502   0.41681554 
 3302000    306.12977    305.27525    -196.3893   -183002.22    814.41336   -182187.81    165390.68   0.82277678   0.20537654   0.22303363   0.41706232 
 3304000    307.91596    306.12075    92.092114   -183004.57    816.66898    -182187.9    166044.62   0.82390755   0.20531121   0.22322825   0.41748233 
 3306000     308.3513    308.34782   -167.79901   -183010.64    822.61035   -182188.03    166260.77   0.82407637   0.20528973   0.22321647   0.41752752 
 3308000     306.4746    307.17954   -277.99054   -183007.35    819.49363   -182187.85    166077.89   0.82360858   0.20559829   0.22297849   0.41739512 
 3310000    307.07582    305.53899   -324.57747      -183003    815.11695   -182187.88    165885.91   0.82344878   0.20549151   0.22314988   0.41736339 
 3312000    303.47067    305.73426   -44.581034   -183003.39     815.6379   -182187.75    165064.74    0.8248308   0.20529544   0.22309317    0.4177398 
 3314000    301.23811     306.0627   -98.656133   -183004.34    816.51412   -182187.83    163996.14   0.82472931   0.20512889   0.22316934   0.41767585 
 3316000    304.67734    307.07997   -179.56532   -183006.88    819.22798   -182187.65    163185.74    0.8243021   0.20512293   0.22322884   0.41755129 
 3318000    302.69447    305.14265   -141.65666   -183001.73    814.05959   -182187.67    163510.76   0.82449376   0.20603542   0.22307717   0.41786878 
 3320000    305.05104    306.22213   -36.520836   -183004.69    816.93944   -182187.75    164844.96   0.82414782   0.20647184    0.2234254   0.41801502 
 3322000    301.18695    304.74954   -87.816198   -183000.64    813.01087   -182187.63    165104.93   0.82366862   0.20688477   0.22342969   0.41799436 
 3324000     305.4524     306.7311   -159.25217   -183005.91    818.29726   -182187.61    164766.73   0.82318373   0.20674663   0.22331743   0.41774926 
 3326000    307.04007    306.88677   -11.048892   -183006.51    818.71256    -182187.8    164560.31   0.82321976   0.20687027    0.2231708   0.41775361 
 3328000    306.22813    306.87187      -72.626   -183006.36    818.67281   -182187.68    164574.98   0.82302549   0.20671507   0.22325193   0.41766416 
 3330000    304.57748    306.62803   -88.541364   -183005.72    818.02231    -182187.7    164692.97   0.82265631   0.20671017   0.22329624   0.41755424 
 3332000     302.5993    305.61418      5.80186   -183002.92    815.31754   -182187.61    164891.38   0.82226075    0.2065354   0.22316356    0.4173199 
 3334000    301.94912    305.65179      -90.661   -183003.18    815.41789   -182187.76    164595.49   0.82192314   0.20647506   0.22299976   0.41713265 
 3336000    307.50353    307.08409   -234.19034   -183007.01    819.23898   -182187.78    164061.57   0.82247092   0.20685795   0.22342285   0.41758391 
 3338000    305.44863    305.98761   -160.65004   -183004.06    816.31378   -182187.75    164175.05   0.82265402   0.20685812    0.2233753   0.41762915 
 3340000    304.09735    304.81501    196.62042   -183000.91    813.18552   -182187.73    164651.91   0.82229146   0.20687016   0.22333016   0.41749726 
 3342000    303.26519    304.23882   -168.89341   -182999.31    811.64837   -182187.66    166065.54    0.8219327    0.2069272   0.22317789   0.41734593 
 3344000    303.05871     304.2096   -87.793945   -182999.32     811.5704   -182187.75    166336.66   0.82162482   0.20706055   0.22297404    0.4172198 
 3346000    305.90452    307.02514    90.424656   -183006.79    819.08171   -182187.71    165873.79   0.82154725   0.20778581   0.22302328   0.41745211 
 3348000    305.31266    307.25954    -90.93195   -183007.26    819.70704   -182187.56     165155.1   0.82132882   0.20780338   0.22292333   0.41735184 
 3350000    307.27663    305.81859    91.306123   -183003.42    815.86287   -182187.55    164903.12   0.82127549     0.207826   0.22273804   0.41727984 
 3352000    305.02143    305.09456   -122.18114   -183001.58    813.93131   -182187.65     164975.3   0.82111228   0.20760484   0.22263526   0.41711746 
 3354000    304.01349    306.79289   -154.93565   -183006.17    818.46211   -182187.71    166217.88   0.82098668   0.20762029   0.22262061   0.41707586 
 3356000    305.27674    305.46984    -34.91933   -183002.45    814.93248   -182187.52    167595.47   0.82057064   0.20743325   0.22244301   0.41681563 
 3358000    303.12089    306.08704   -229.59762   -183004.07    816.57904   -182187.49    168450.14   0.82060129   0.20784456   0.22239259   0.41694615 
 3360000    305.96933    307.03289    -200.2299   -183006.59    819.10239   -182187.49    168387.08   0.82067289   0.20796615   0.22225266    0.4169639 
 3362000    306.83568    305.40081   -380.95058   -183002.31    814.74833   -182187.56    167883.37   0.82025392   0.20783525   0.22229586   0.41679501 
 3364000    307.57516    305.29234   -235.26278   -183002.14    814.45895   -182187.68    167276.32   0.81986014   0.20784186   0.22218689   0.41662963 
 3366000    309.72556    307.47999   -178.98383   -183007.99    820.29515   -182187.69    166277.23   0.81960179   0.20789677   0.22210656   0.41653504 
 3368000    305.60416    306.64544    29.228316   -183005.53    818.06876   -182187.46    165166.97   0.81934931   0.20782006   0.22204466   0.41640468 
 3370000    305.96383    307.21376   -263.04857   -183006.92    819.58492   -182187.34    165037.15    0.8191529    0.2078172   0.22189141   0.41628717 
 3372000    305.08319    302.79033   -30.750552   -182995.32    807.78407   -182187.54    165412.14   0.81869098   0.20768653   0.22170147   0.41602633 
 3374000    305.49247     304.5371   -221.63516   -182999.92    812.44411   -182187.48    165929.77   0.81823148   0.20754952   0.22158491   0.41578863 
 3376000    306.17206    307.26136    43.931821   -183007.26    819.71189   -182187.55    166594.21   0.81787762    0.2074317   0.22164074   0.41565002 
 3378000    306.12476    305.57634      136.997   -183002.65     815.2166   -182187.43    166770.67   0.81748399   0.20750372   0.22140346   0.41546372 
 3380000    303.74947    305.24259   -148.41253   -183001.83    814.32622    -182187.5    166726.91   0.81713948   0.20739936   0.22127916   0.41527267 
 3382000    306.52383    307.65131    -345.1208   -183008.19    820.75221   -182187.43    166634.38   0.81710419   0.20753663   0.22118249   0.41527444 
 3384000    305.19027    305.93813    30.759987   -183003.72    816.18179   -182187.54    166786.87   0.81715035   0.20781549   0.22123466   0.41540016 
 3386000    303.75446    305.38521   -17.308029   -183002.13    814.70669   -182187.42    166713.64   0.81682754   0.20860868   0.22117434   0.41553685 
 3388000    304.43205      306.369   -168.15223   -183004.79    817.33127   -182187.46    165781.48   0.81630361   0.20852474   0.22107857   0.41530231 
 3390000    306.69235    305.63428   -268.34293   -183002.77    815.37118    -182187.4    165269.37   0.81588379   0.20881022   0.22096727   0.41522042 
 3392000    303.58181    304.71017     -70.7496   -183000.45    812.90583   -182187.55    165288.01   0.81603774   0.20899474   0.22088511   0.41530586 
 3394000    302.83244    305.43935   -150.82311   -183002.34    814.85113   -182187.48    165871.16   0.81532505   0.20884348    0.2207715   0.41498001 
 3396000    300.88108    304.43703   -263.00198   -182999.57    812.17716    -182187.4    166824.39   0.81513004   0.20875245   0.22064638   0.41484296 
 3398000    303.86989    306.28335   -344.78326    -183004.5    817.10277    -182187.4    167325.33   0.81498092   0.20850392   0.22135284   0.41494589 
 3400000    303.79802    304.79335   -4.1889255   -183000.48    813.12774   -182187.35    166493.81   0.81533364   0.20843869   0.22151769   0.41509667 
 3402000    304.77077    304.93687   -109.80926   -183000.71    813.51061    -182187.2    165818.41    0.8154327   0.20835319   0.22139231    0.4150594 
 3404000    304.68521    305.53711    139.60911   -183002.45    815.11194   -182187.34     164792.5   0.81615235   0.20824075   0.22135963   0.41525091 
 3406000    304.11758    305.53665    57.657778   -183002.44     815.1107   -182187.33    164211.14   0.81666861   0.20824757   0.22129085   0.41540235 
 3408000    303.73204    306.74045   -39.378287    -183005.6    818.32221   -182187.28    164740.04   0.81631269   0.20885037   0.22128447   0.41548251 
 3410000    302.69463    304.75354   -30.139592   -183000.37    813.02152   -182187.35    165038.61   0.81599887   0.20867322   0.22209426   0.41558878 
 3412000    305.25922    306.46492   -82.592061   -183005.07    817.58716   -182187.48    164930.72   0.81547072   0.20852515   0.22227914     0.415425 
 3414000     306.3257    306.37669   -320.43618   -183004.75    817.35177    -182187.4    164111.26   0.81531633   0.20841088   0.22221131   0.41531284 
 3416000    303.84957    307.46897   -56.503185    -183007.6    820.26577   -182187.34    163117.71   0.81472228   0.20824472   0.22205143   0.41500614 
 3418000    303.09722    304.58488   -199.36708   -182999.77    812.57159    -182187.2    163256.18   0.81442038   0.20807586   0.22194665   0.41481429 
 3420000    308.08247    308.79266   -75.595774   -183011.15     823.7971   -182187.35     164481.1   0.81435397   0.20795977   0.22180185    0.4147052 
 3422000    302.63887    304.10262   -211.81111   -182998.49    811.28502    -182187.2    165410.22    0.8139409   0.20775162   0.22187976   0.41452409 
 3424000    301.27504    304.21391   -250.89729   -182998.75     811.5819   -182187.17     165867.4   0.81331633   0.20816689   0.22175636   0.41441319 
 3426000    303.01596    304.35335   -133.82901   -182999.23    811.95391   -182187.27    165521.98   0.81300361    0.2087655   0.22149631   0.41442181 
 3428000    304.49077    304.54399    1.7948283   -182999.69    812.46251   -182187.23    165266.47   0.81270996   0.20900891   0.22166002   0.41445963 
 3430000    307.67533    306.15318   -54.875399   -183003.76    816.75549      -182187    164956.71   0.81240653   0.20890838    0.2216207   0.41431187 
 3432000     304.5137    305.80465    158.87433   -183002.89    815.82568   -182187.06     164924.3   0.81265872   0.20869292   0.22163114   0.41432759 
 3434000    305.32509    305.43823    57.132748   -183001.97    814.84816   -182187.12     164674.4   0.81238468   0.20869182   0.22165836   0.41424496 
 3436000    304.50365    304.67273   -210.59574   -182999.87    812.80595   -182187.07    165292.17   0.81192013   0.20865566   0.22151711   0.41403097 
 3438000    303.93094    302.97962    135.88333   -182995.39    808.28906    -182187.1    166070.58   0.81161604   0.20876923   0.22192475   0.41410334 
 3440000    306.55979    306.56417    17.448683   -183004.85    817.85193   -182186.99    166561.75   0.81166539   0.20854389   0.22219718   0.41413549 
 3442000    305.72757    306.21765    121.37518   -183003.95     816.9275   -182187.02    166470.28   0.81189931   0.20883335   0.22201241   0.41424836 
 3444000    302.13395    303.73569   -194.98259   -182997.29    810.30611   -182186.99       165841   0.81199166   0.20869227   0.22197321   0.41421905 
 3446000    304.78068    307.14478   -40.338319   -183006.46    819.40087   -182187.06    165356.48    0.8114564   0.20859836   0.22173956   0.41393144 
 3448000     302.3843    305.76927   -57.405402   -183002.79     815.7313   -182187.06    164696.49   0.81125945   0.20838645    0.2221173   0.41392107 
 3450000    302.76991    304.47932   -122.33283   -182999.21    812.28998   -182186.92    164181.81   0.81104222   0.20894353   0.22200735    0.4139977 
 3452000    305.20388    306.26082   -138.16394   -183004.04    817.04267      -182187    163865.49   0.81061035   0.20909341   0.22190932   0.41387103 
 3454000    305.07451    306.08512    51.438995    -183003.4    816.57393   -182186.83    164815.01   0.81044709   0.20933345   0.22213036    0.4139703 
 3456000    305.02585     305.5834   -211.85622   -183002.28    815.23543   -182187.05    165453.47   0.81075229   0.20913495   0.22200526   0.41396416 
 3458000     307.4359    306.26597    229.74947   -183004.01     817.0564   -182186.95    165812.11   0.81082563   0.20920154   0.22213837   0.41405518 
 3460000     310.5475    309.61894   -297.38263   -183013.03    826.00146   -182187.03    166399.21   0.81065766   0.20955421   0.22194918   0.41405368 
 3462000    307.15433    307.10113   -23.303242   -183006.35    819.28443   -182187.06    167035.63   0.81047217     0.209483   0.22260574   0.41418697 
 3464000    306.03111    305.84676    36.091683   -183002.83    815.93803   -182186.89    167036.81   0.81040867   0.20934439    0.2223044   0.41401915 
 3466000    305.40351    306.15749     -196.595   -183003.79      816.767   -182187.02    166232.91   0.81023677   0.20926969   0.22240827   0.41397158 
 3468000    301.79156    305.88524   -91.607388   -183002.95    816.04069   -182186.91    165144.25   0.80981382   0.20936296   0.22242004   0.41386561 
 3470000     307.7765    308.43117   -317.01343   -183009.91     822.8327   -182187.07    164682.21   0.80999595   0.20927409   0.22321089   0.41416031 
 3472000    305.70571    305.85647    21.154727      -183003    815.96394   -182187.04    165063.46    0.8099149   0.20908723   0.22319015   0.41406409 
 3474000    304.78947    305.96103   -220.57316   -183003.25    816.24287      -182187    165730.74   0.81073497   0.20916959   0.22327653    0.4143937 
 3476000    308.76088    307.09246   -23.980263   -183006.38     819.2613   -182187.12    166665.23   0.81305946    0.2091785   0.22328983   0.41517593 
 3478000    304.62879     306.3732   -194.64495   -183004.45    817.34245    -182187.1    166536.38    0.8125283   0.20904503   0.22311979   0.41489771 
 3480000    304.85397    304.33557    45.358902   -182998.66    811.90647   -182186.75    165875.89   0.81205624   0.20906357   0.22298887   0.41470289 
 3482000    303.95271    305.56589   -204.70665   -183002.26    815.18872   -182187.07     166163.4    0.8115889   0.20896691   0.22321977   0.41459186 
 3484000    307.35109    308.65965   -263.61691   -183010.52    823.44225   -182187.08     167210.2   0.81124798   0.20982622   0.22335933   0.41481118 
 3486000    305.13514    306.75245     46.47018   -183005.27    818.35424   -182186.91    168396.36   0.81125827   0.20979005   0.22330983   0.41478605 
 3488000    302.51432    304.91445   -75.601806   -183000.44     813.4508   -182186.99    168344.51   0.81145475    0.2101179   0.22324883   0.41494049 
 3490000    304.00247    307.54963   -102.92493   -183007.38    820.48094    -182186.9    167503.38   0.81191115   0.21006133   0.22304065   0.41500438 
 3492000    303.53957    304.75511   -71.237627   -183000.03    813.02572      -182187    166248.82    0.8120817   0.21022299   0.22301315   0.41510595 
 3494000    304.33818    305.33612   -43.208267   -183001.54    814.57574   -182186.96    165384.41   0.81191091   0.21064484   0.22293429   0.41516335 
 3496000    307.15526    307.41805   -261.82451    -183007.1    820.12991   -182186.97    165004.97   0.81156106   0.21068905   0.22318101    0.4151437 
 3498000    305.50145    306.39135   -18.617552    -183004.4    817.39089   -182187.01    164746.23   0.81320748   0.21096175   0.22293456   0.41570127 
 3500000    307.84328    307.59358   -246.69439   -183007.59     820.5982   -182186.99    164875.41   0.81515632   0.21087801   0.22315679   0.41639704 
 3502000    305.42918    305.08652    93.415046   -183000.88    813.90986   -182186.97    165791.13   0.81507231   0.21070114   0.22350228   0.41642524 
 3504000    306.16359    304.96406    64.028653   -183000.56    813.58315   -182186.97    167025.96   0.81465058   0.21064146     0.223313   0.41620168 
 3506000    307.94537    306.42944   -171.08418   -183004.56     817.4925   -182187.07    166908.28   0.81481938   0.21045163   0.22319086   0.41615395 
 3508000    303.78405    305.24992    -56.84259   -183001.18    814.34578   -182186.83    166069.65   0.81446441   0.21047925   0.22313352   0.41602573 
 3510000    306.22431    307.56801   -242.43872    -183007.5    820.52997   -182186.97    164732.29   0.81436377   0.21042406    0.2232177   0.41600184 
 3512000    306.42516    306.67685   -154.19413   -183005.02    818.15255   -182186.87    164240.15   0.81434151   0.21066931   0.22339205   0.41613429 
 3514000    307.23393    307.26506    8.8803975   -183006.61    819.72176   -182186.89    163835.76   0.81406144   0.21059184   0.22311272     0.415922 
 3516000    306.74445    306.42357   -211.54541   -183004.27    817.47685   -182186.79    164312.07   0.81414385   0.21054878   0.22333764   0.41601009 
 3518000    305.72105    305.51693    86.420917   -183001.73     815.0581   -182186.67    165507.18    0.8140655   0.21074837   0.22338204    0.4160653 
 3520000    302.22208     304.5809   -183.57559    -182999.3    812.56096   -182186.74    167108.36   0.81445794   0.21066417   0.22325685   0.41612632 
 3522000     304.4342    305.94437    168.56564   -183002.99    816.19844    -182186.8     168639.8   0.81445722   0.21066485   0.22342289   0.41618165 
 3524000    305.21129    304.60317   -71.200412   -182999.28    812.62038   -182186.66    169021.96   0.81496615   0.21055118   0.22328506   0.41626746 
 3526000    305.19848    305.03935   -232.43693    -183000.4    813.78402   -182186.61     168800.5    0.8148826   0.21043334   0.22330068   0.41620554 
 3528000    301.23245    302.18675   -219.39906   -182992.74    806.17384   -182186.57    167824.99   0.81535172   0.21032365   0.22318577   0.41628704 
 3530000    306.47112     305.1771   -201.47803   -183000.87    814.15152   -182186.72    167002.94    0.8148509    0.2104538   0.22305324   0.41611931 
 3532000    308.51695    307.82115    54.960268   -183007.86     821.2053   -182186.66     165657.6   0.81451232   0.21045737   0.22280791   0.41592587 
 3534000     307.2771    306.75814   -73.282417   -183004.94    818.36941   -182186.57    164559.95   0.81435865   0.21037541   0.22278575   0.41583994 
 3536000    308.70082    308.29943   -174.36855   -183009.15    822.48126   -182186.67    163863.71   0.81512713   0.21023412    0.2228184   0.41605988 
 3538000    307.97836    308.03768   -119.97391   -183008.61    821.78297   -182186.83    163919.63   0.81467947   0.21012722   0.22336449   0.41605706 
 3540000    306.75822     307.0229    4.2695751   -183005.86    819.07573   -182186.78    164560.28   0.81425952   0.20998332   0.22334128   0.41586137 
 3542000    305.79188    306.02533   -90.561262   -183002.93    816.41441   -182186.51    165290.65   0.81392445   0.20990193   0.22333453   0.41572031 
 3544000    307.19988    308.02213   -85.144788   -183008.36    821.74147   -182186.62    165642.49   0.81352079   0.21011525   0.22391488   0.41585031 
 3546000    306.56165    304.63119   -72.704516   -182999.34    812.69514   -182186.65    165165.01    0.8132864   0.21020608   0.22377703    0.4157565 
 3548000    306.15392    306.35553   -4.7623929   -183003.91    817.29533   -182186.61    164856.31   0.81279696   0.21008423   0.22369576   0.41552565 
 3550000    309.21493    307.14251   -194.79177   -183006.12    819.39482   -182186.73    164431.22   0.81230144   0.20996752   0.22354892   0.41527263 
 3552000    305.35289    304.47173   -155.35642   -182998.77    812.26972    -182186.5    164970.74   0.81200772   0.21004032   0.22351452   0.41518752 
 3554000    306.49532    305.42657    -283.2673   -183001.35    814.81705   -182186.53    165984.36   0.81151526   0.20990738   0.22355362   0.41499208 
 3556000     303.2708    305.32511   -164.20996      -183001    814.54637   -182186.45    166679.96   0.81104016   0.20977251   0.22343946   0.41475071 
 3558000    306.57624    306.90335   -246.14302   -183005.24    818.75681   -182186.49    166722.38   0.81063468   0.20969404   0.22343296   0.41458723 
 3560000     304.8392    304.16394   -125.44873   -182997.89    811.44859   -182186.44    165222.68   0.81017858   0.21018635   0.22331098   0.41455864 
 3562000    303.62351     304.7741   -384.21375   -182999.51    813.07639   -182186.44    163706.31    0.8097686   0.21018873   0.22314301   0.41436678 
 3564000     308.4755    308.13362   -316.21624   -183008.62    822.03891   -182186.58       162656   0.80929274   0.21005872   0.22325498   0.41420215 
 3566000    306.56825    306.33522   -130.45718   -183003.68    817.24115   -182186.44    162729.65   0.80890021   0.20986999   0.22306079   0.41394366 
 3568000    305.27357    306.03212    34.515389   -183002.69    816.43252   -182186.25    163189.55   0.80844458   0.21106028   0.22291991   0.41414159 
 3570000     310.1991    308.21746   -106.01825   -183008.73    822.26259   -182186.47    163641.24   0.80877008   0.21110025   0.22278663   0.41421899 
 3572000    308.68433    305.22821   -53.538529   -183000.76    814.28785   -182186.48    164801.43   0.81011986   0.21091176   0.22276669   0.41459944 
 3574000    310.86803    308.31251   -11.531956   -183008.96    822.51615   -182186.44    165336.09   0.81041529   0.21089767   0.22267944   0.41466413 
 3576000    311.43836    308.85727   -169.64475   -183010.42    823.96948   -182186.46    165990.63   0.81019679    0.2109089   0.22250052   0.41453541 
 3578000    305.61609    305.07447   -142.45681   -183000.14    813.87771   -182186.26    166324.23   0.80975731   0.21092362   0.22305657   0.41457917 
 3580000    305.91635      307.377   -230.96269   -183006.39    820.02041   -182186.37    166473.94   0.80934105    0.2108125   0.22364184   0.41459846 
 3582000    307.03147    305.15461   -60.380573    -183000.6    814.09152   -182186.51    166859.48   0.80899678   0.21185846   0.22365258   0.41483594 
 3584000    304.24986    305.04664   -146.84812   -183000.21    813.80347   -182186.41    167053.01   0.80882007   0.21140839   0.22367417   0.41463421 
 3586000    306.32596    306.77004   -26.290557   -183004.86    818.40117   -182186.45    166933.79   0.80840455    0.2111692   0.22392666   0.41450014 
 3588000     304.0574    304.97596   -88.113696   -183000.01    813.61489    -182186.4    166856.42   0.80802118   0.21113063   0.22414257   0.41443146 
 3590000    307.11975    305.17828   -203.18685   -183000.57    814.15464   -182186.42    167125.84   0.80770561   0.21120211   0.22408756   0.41433176 
 3592000    308.51596    306.45626   -147.00386   -183003.93    817.56404   -182186.37    167239.29   0.80724794   0.21106997   0.22400182   0.41410658 
 3594000     307.9655    305.66146   -169.79846   -183001.82    815.44367   -182186.38    166690.15   0.80678687   0.21140524   0.22393229   0.41404146 
 3596000    307.39311    304.91946   -233.87335   -182999.94    813.46418   -182186.48       166310   0.80653514   0.21126616   0.22392143   0.41390758 
 3598000    308.79416    308.77413   -317.91576   -183010.14    823.74766   -182186.39    166437.59   0.80617607   0.21188834   0.22364872   0.41390438 
 3600000    306.32634    305.15274   -164.12824    -183000.4    814.08651   -182186.31    166438.32   0.80579309    0.2121122   0.22353594   0.41381374 
 3602000    305.46202    306.13221   -15.173879   -183003.11    816.69955   -182186.41    166397.46   0.80565385   0.21204963   0.22446937   0.41405762 
 3604000    304.83699    305.36025   -66.306402   -183000.85    814.64012   -182186.21    166412.04   0.80577227   0.21198794   0.22417951   0.41397991 
 3606000    308.31896    307.90653    110.93235   -183007.88    821.43308   -182186.45    166735.11   0.80543577   0.21197315   0.22403928   0.41381607 
 3608000    308.13729    307.31139   -173.61193   -183006.17    819.84537   -182186.32    166828.25   0.80510674   0.21188468   0.22387905   0.41362349 
 3610000    302.23778    304.54726   -25.322824   -182998.73    812.47121   -182186.26    166438.36   0.80470372   0.21180966   0.22381903   0.41344414 
 3612000    304.32293    305.11755   -110.60095    -183000.2    813.99265   -182186.21    166603.78    0.8045792   0.21178437   0.22375854   0.41337403 
 3614000    303.84388     304.6113    4.1621505      -182999    812.64208   -182186.36    166237.16    0.8040862   0.21212504   0.22416072   0.41345732 
 3616000    305.41323    304.75407   -98.693339   -182999.29    813.02294   -182186.27    165630.04   0.80365464   0.21198021   0.22481256   0.41348247 
 3618000    307.05699    305.52795   -151.72682   -183001.33     815.0875   -182186.25    166157.34   0.80328081   0.21215894   0.22472137   0.41338704 
 3620000    304.10123    303.68406   -294.59799   -182996.43    810.16837   -182186.26    166904.25   0.80316586   0.21204547   0.22471636   0.41330923 
 3622000    305.72698    304.76586   -137.84839   -182999.29     813.0544   -182186.24     167449.2   0.80330145   0.21241256   0.22463694   0.41345031 
 3624000    306.45645    305.37077    -118.3546    -183000.9    814.66819   -182186.24    167504.53   0.80325013   0.21222395   0.22482626   0.41343344 
 3626000    307.74501    305.67324    89.599012   -183001.65    815.47512   -182186.17    167261.28   0.80291292   0.21206007   0.22473762   0.41323687 
 3628000    304.07615    302.49055    -143.6189   -182993.25    806.98432   -182186.27     167491.8   0.80255779   0.21206709   0.22478274   0.41313587 
 3630000    304.92749    303.91089   -152.85419   -182997.11     810.7735   -182186.33    167438.07   0.80316654    0.2119086   0.22471751   0.41326422 
 3632000    305.35181     304.4066   -67.832946    -182998.3    812.09598   -182186.21    167432.72   0.80392879   0.21179495   0.22446789   0.41339721 
 3634000    304.48229    304.06884    114.90589   -182997.52    811.19489   -182186.33    166719.06   0.80381717    0.2116606   0.22507466   0.41351748 
 3636000    303.35808    304.22443   -105.08994    -182997.8    811.60998   -182186.19    165994.12   0.80377713   0.21159266   0.22492292    0.4134309 
 3638000    307.14642    306.19191   -113.55651   -183003.13    816.85882   -182186.27    165181.03    0.8039938   0.21157096   0.22485149   0.41347208 
 3640000    308.19942    307.06748    11.256601   -183005.55    819.19467   -182186.35    164923.68   0.80395082   0.21151377   0.22477412    0.4134129 
 3642000    306.57158    307.13006   -176.70606   -183005.57    819.36161   -182186.21    165342.08   0.80347095   0.21156743   0.22464871   0.41322903 
 3644000    307.54905    305.94433    -115.2752   -183002.63    816.19833   -182186.43    165598.35   0.80313686   0.21152868     0.224578   0.41308118 
 3646000     307.0863    307.25564   -202.35732   -183005.98    819.69664   -182186.29    165744.56   0.80391358   0.21152854   0.22460908    0.4133504 
 3648000    306.52481    306.26788   -31.004961   -183003.22     817.0615   -182186.16    165461.62   0.80452499   0.21132197   0.22443013    0.4134257 
 3650000    308.33153    308.47941    35.075995   -183009.26    822.96142    -182186.3    165112.92   0.80453797   0.21223796   0.22450419   0.41376004 
 3652000    303.50351    306.61095   -209.41801   -183004.21    817.97673   -182186.23    165450.13   0.80544065   0.21225823   0.22428275   0.41399388 
 3654000    305.40285    305.30264   -58.218234   -183000.73    814.48643   -182186.24    165674.32    0.8058001    0.2120975   0.22433218   0.41407659 
 3656000     305.6755    307.91615   -284.42587   -183007.62    821.45875   -182186.17    165680.03   0.80568537   0.21216129   0.22441133     0.414086 
 3658000    302.01172    304.94001   -78.952637   -182999.74    813.51901   -182186.22     165553.6   0.80530151    0.2120976   0.22430941   0.41390284 
 3660000     304.1937    305.00057   -73.260613   -182999.77    813.68057   -182186.09    165308.01   0.80532738   0.21205742   0.22432217   0.41390232 
 3662000    304.27012    305.96083    154.18523   -183002.42    816.24235   -182186.18    164825.82   0.80522264   0.21208399   0.22501622   0.41410762 
 3664000    306.71432    307.43694   -163.34377   -183006.31    820.18032   -182186.13    164524.35   0.80469337   0.21199476   0.22492066    0.4138696 
 3666000    308.40359    308.97935   -380.04046    -183010.6    824.29516   -182186.31    163954.88   0.80461127   0.21184534   0.22495831   0.41380498 
 3668000    304.32763    305.38949   -237.56008   -183000.71    814.71813      -182186    163657.08   0.80432238   0.21170261   0.22467133   0.41356544 
 3670000    301.87134    304.63736   -43.266737   -182998.72     812.7116   -182186.01    164012.92   0.80401929   0.21161981   0.22461885   0.41341932 
 3672000    305.91513    306.06767   -149.29896   -183002.57    816.52737   -182186.04    164754.65   0.80356643   0.21159574   0.22455233   0.41323816 
 3674000    306.81686     308.5577    4.3519489   -183009.34    823.17028   -182186.17    165507.01   0.80353087   0.21151267   0.22449171   0.41317842 
 3676000     306.3914    306.67453    40.350474   -183004.16    818.14636   -182186.02    165943.73   0.80360874   0.21135867   0.22485981   0.41327574 
 3678000    303.89678    305.78401   -164.02057   -183001.81    815.77063   -182186.04    166309.49   0.80335393   0.21148231   0.22498481   0.41327368 
 3680000    306.10454    307.60611   -159.68817   -183006.85    820.63161   -182186.21    165784.02    0.8032312   0.21171586   0.22513867   0.41336191 
 3682000    302.78755    304.36717    51.754145   -182998.08    811.99078   -182186.09     165879.6   0.80317669    0.2120234   0.22510237   0.41343415 
 3684000    304.39473    307.42567    122.49271   -183006.35    820.15024    -182186.2    166312.48   0.80302756   0.21205229   0.22504701   0.41337562 
 3686000    303.75908    305.13967   -20.272711   -183000.07    814.05165   -182186.02    166830.21   0.80265701   0.21216565   0.22482424   0.41321563 
 3688000    304.47761    305.94311   -264.60989   -183002.27    816.19508   -182186.08    166768.61   0.80313332    0.2122999   0.22602019    0.4138178 
 3690000    304.23855    305.61167   -76.354683   -183001.34    815.31086   -182186.03    166239.44   0.80388055    0.2122086    0.2262878   0.41412565 
 3692000    302.37305    305.96212    147.05856   -183002.48    816.24578   -182186.23    165432.79   0.80378291   0.21206164   0.22626364   0.41403606 
 3694000    306.33019    306.69593   -132.76807   -183004.28    818.20345   -182186.07    164357.73   0.80346861   0.21193914   0.22602574   0.41381116 
 3696000    304.04356    306.29653     196.2133   -183003.29    817.13793   -182186.15    164807.99    0.8030225   0.21199971   0.22579512   0.41360578 
 3698000    307.86237    307.21346   -193.63392   -183005.79    819.58412    -182186.2    165213.02   0.80277392   0.21266211   0.22575974   0.41373192 
 3700000     305.0137    306.33186   -83.169131   -183003.48    817.23218   -182186.25    165408.96   0.80241029   0.21242174   0.22572835   0.41352012 
 3702000    307.44385    307.71533   -49.222089   -183007.17      820.923   -182186.24    165178.69   0.80214412   0.21287001   0.22560493   0.41353969 
 3704000    304.40075    306.58899   -225.90142    -183004.1    817.91815   -182186.18    164883.72   0.80302087   0.21300745   0.22567564   0.41390132 
 3706000    304.19813      305.984    26.627199    -183002.5    816.30417    -182186.2    164370.37   0.80481893    0.2130169   0.22569838   0.41451141 
 3708000    308.50984    306.49586   -276.83519   -183003.92    817.66971   -182186.25    164939.87   0.80682512   0.21286104   0.22560037   0.41509551 
 3710000    305.59901    306.00061   -525.88396   -183002.51    816.34846   -182186.16    165700.71   0.80731993   0.21292114    0.2258448   0.41536196 
 3712000    305.35921    305.10427   -172.76945   -182999.98    813.95722   -182186.02     166582.2   0.80731347    0.2131984   0.22575249   0.41542145 
 3714000    304.22847    305.87728   -303.63592   -183002.12    816.01945   -182186.11    167196.16   0.80681599    0.2136079   0.22582449   0.41541613 
 3716000    305.29913    306.95285   -64.829315   -183005.14    818.88885   -182186.25    166673.23   0.80667783   0.21382913   0.22628415   0.41559704 
 3718000    302.18902    304.81102   -271.04198   -182999.34    813.17488   -182186.17    165625.81   0.80663128   0.21374447   0.22705439   0.41581005 
 3720000    307.22474    308.46596   -207.59829   -183009.16    822.92554   -182186.23    164299.05   0.80683791   0.21363405   0.22677471   0.41574889 
 3722000    305.99994    307.30479   -258.04136   -183005.85    819.82775   -182186.02    163364.56   0.80684714   0.21356038   0.22677019    0.4157259 
 3724000    308.15792    307.99559   -101.79379   -183007.77    821.67067    -182186.1     163770.8    0.8064143   0.21347012   0.22684019   0.41557487 
 3726000    308.30874    308.87395    127.77496   -183010.05    824.01397   -182186.04    164918.09   0.80605014   0.21335578   0.22689448   0.41543347 
 3728000    306.47747    306.85264    209.99187   -183004.58    818.62151   -182185.96    166205.23   0.80579392   0.21332884   0.22673449   0.41528575 
 3730000    307.08387    307.23216   -4.8672397   -183005.73    819.63401    -182186.1    166133.31   0.80614171   0.21326599   0.22721681    0.4155415 
 3732000    307.60926    307.20793   -348.18417   -183005.63    819.56935   -182186.07    165550.31   0.80689486   0.21318047   0.22748649   0.41585394 
 3734000    302.85103    305.16681    114.31177   -183000.12    814.12407      -182186    164842.76    0.8069703   0.21305171    0.2274564   0.41582614 
 3736000    307.57977    307.99187   -221.89305   -183007.74    821.66075   -182186.08    164381.65    0.8066932   0.21291211   0.22738098    0.4156621 
 3738000    308.03873    305.66202   -223.00915   -183001.39    815.44517   -182185.94    164507.05   0.80710875   0.21280811   0.22714916   0.41568868 
 3740000    305.87839    306.65185   -126.22671   -183004.16    818.08586   -182186.08    165340.48   0.80740954   0.21272759     0.227116   0.41575105 
 3742000    306.34572     306.2395   -253.37736   -183003.02    816.98579   -182186.03    165869.89    0.8082827   0.21267861   0.22703799   0.41599977 
 3744000    308.73339    308.27892   -157.25206   -183008.48    822.42654   -182186.05    166542.35    0.8082841   0.21262819    0.2268587   0.41592367 
 3746000    304.17125    304.14165   -262.73944   -182997.22    811.38915   -182185.83    167065.92   0.80776944   0.21266168   0.22667935   0.41570349 
 3748000    304.51473    305.88458     -31.7037   -183001.93    816.03891   -182185.89    167428.23    0.8074964   0.21264335   0.22666063   0.41560013 
 3750000    307.79227    306.28568    20.448747   -183002.97    817.10897   -182185.86    167397.88   0.80767078   0.21249065   0.22657064   0.41557736 
 3752000    304.20819    305.13783   -306.41557   -182999.99    814.04675   -182185.94       166709   0.80778396   0.21236817   0.22644096   0.41553103 
 3754000    306.20275    306.06754   -214.13057   -183002.45    816.52702   -182185.92    165665.06   0.80812138   0.21231436   0.22631745    0.4155844 
 3756000    304.70695    305.85857   -152.81161   -183001.93    815.96955   -182185.96    164890.85    0.8077989   0.21218104   0.22679333   0.41559109 
 3758000     303.4149     304.2955   -187.34484   -182997.67    811.79957   -182185.87    164665.82   0.80743181   0.21206774   0.22709098   0.41553018 
 3760000    306.24677     307.8622    49.684121   -183007.13    821.31482   -182185.81    164530.53   0.80800467   0.21197953   0.22701114   0.41566511 
 3762000    305.86307     305.0644   -17.806222   -182999.62    813.85086   -182185.77    164540.01   0.80750174   0.21219624     0.227087     0.415595 
 3764000    307.56944    305.62564    96.399338   -183001.31    815.34812   -182185.97    165147.62   0.80701333   0.21226912   0.22690124   0.41539457 
 3766000    302.90259    303.70708   -65.165266   -182996.01    810.22978   -182185.78    165725.32   0.80690967   0.21230079   0.22682178   0.41534408 
 3768000    307.38801    306.98106   -23.415171   -183004.72    818.96411   -182185.75     166438.2   0.80662449   0.21246673   0.22675989    0.4152837 
 3770000    303.21014    303.97921    114.02921   -182996.62    810.95578   -182185.67    166691.48   0.80613998   0.21243582   0.22663998   0.41507192 
 3772000    309.88923    307.54159   -231.12101   -183006.21    820.45951   -182185.75     166581.4   0.80556798   0.21232723   0.22655172   0.41481564 
 3774000    302.84429    303.25417   -285.09978    -182994.8    809.02152   -182185.78    166684.06   0.80524049   0.21242277   0.22665799   0.41477375 
 3776000    306.37728    307.28082   -157.44425   -183005.49    819.76382   -182185.72    166777.19    0.8049071   0.21256851   0.22654208   0.41467256 
 3778000    305.18503    305.17291    16.958749    -182999.8    814.14034   -182185.66    166868.87   0.80440117   0.21254089   0.22666654    0.4145362 
 3780000    305.80383    305.69874    72.110776   -183001.33    815.54315   -182185.79    165985.27   0.80391137   0.21247681   0.22656879   0.41431899 
 3782000    306.00213    306.77334    -9.420052   -183004.15    818.40994   -182185.74    164848.58   0.80367336   0.21234324   0.22667348   0.41423003 
 3784000    307.19242    306.22864   -19.738608   -183002.62    816.95681   -182185.66    163919.89   0.80368901   0.21221727   0.22651143   0.41413924 
 3786000    309.01209    305.25138    52.409796   -182999.97    814.34968   -182185.62    164015.12   0.80390022   0.21207116   0.22638994   0.41412044 
 3788000    306.59456    306.61222   -221.81844   -183003.73    817.98011   -182185.75    165791.33   0.80347576   0.21245354   0.22626399   0.41406443 
 3790000    305.75856    304.58825   -266.34531   -182998.23    812.58058   -182185.65    167324.83   0.80318737   0.21240047    0.2263303   0.41397271 
 3792000    306.30206    305.27031   -1.7133353   -183000.04    814.40018   -182185.64    168136.56   0.80394362   0.21248099   0.22631926   0.41424796 
 3794000    303.71193    305.78091   -333.00312   -183001.39    815.76236   -182185.63    167381.65    0.8059763   0.21234221   0.22618648   0.41483499 
 3796000    306.92899    306.79422   -222.23428    -183004.1    818.46567   -182185.64    166664.45   0.80572897   0.21229862   0.22605259   0.41469339 
 3798000    304.36954    305.63415   -3.1153892   -183001.06    815.37084   -182185.69    166253.87   0.80534569   0.21214204   0.22600266    0.4144968 
 3800000    304.83827    304.91067    125.75932   -182999.23    813.44074   -182185.79    166371.45   0.80503801   0.21220425   0.22584354   0.41436193 
 3802000    309.25894    305.76837   -55.456621   -183001.34     815.7289   -182185.61    166847.77   0.80473446   0.21213568   0.22599678   0.41428897 
 3804000     305.3041    306.10072   -19.559614   -183002.23    816.61553   -182185.62    167877.17   0.80428552   0.21205095   0.22604605   0.41412751 
 3806000    310.26924    306.91112   -274.15325    -183004.5    818.77753   -182185.72    168761.56   0.80403688   0.21206536   0.22598496   0.41402907 
 3808000    306.29937    304.31107   -174.73977   -182997.37    811.84112   -182185.53    169086.49   0.80441198   0.21220021   0.22582533   0.41414584 
 3810000     308.5046    306.12872    32.206993   -183002.36    816.69023   -182185.67     168818.3   0.80530536   0.21215046   0.22577883   0.41441155 
 3812000    310.08586    306.81747   -130.15356    -183004.1     818.5277   -182185.57    168830.62    0.8055851    0.2120894   0.22572445   0.41446632 
 3814000    305.85885    304.98841   -123.20092   -182999.26    813.64813   -182185.61    168703.47   0.80510293   0.21228197   0.22537707   0.41425399 
 3816000     306.0624    304.18321   -273.43632   -182997.14        811.5   -182185.64    167916.21   0.80475395   0.21221105   0.22547256   0.41414585 
 3818000    303.33677    303.09881   -76.802773   -182994.21    808.60705    -182185.6    167121.98    0.8047521   0.21227741   0.22534069    0.4141234 
 3820000    307.37572    305.85922   -32.491215   -183001.66    815.97128   -182185.69    166978.96   0.80443734   0.21209228    0.2251536   0.41389441 
 3822000    308.40294    307.91358   -205.81613   -183007.07    821.45188   -182185.62    166491.54   0.80442546    0.2119149    0.2251701   0.41383682 
 3824000     308.7933    307.51029   -149.71326   -183006.07    820.37598   -182185.69    165912.04    0.8039486   0.21218822   0.22519012   0.41377565 
 3826000    309.48459    307.17071   -141.26236   -183005.02    819.47005   -182185.55    165836.02   0.80354055   0.21205786   0.22518544   0.41359462 
 3828000    307.93988    307.41224    161.69153    -183005.7    820.11441   -182185.58    166206.89   0.80316564   0.21197952   0.22525619   0.41346712 
 3830000    309.80245    307.58846   -329.84827   -183006.41    820.58455   -182185.82    166131.26   0.80301108   0.21227144   0.22543283   0.41357178 
 3832000    306.42522    306.67609    47.427228   -183003.77    818.15051   -182185.62    165809.97   0.80334178   0.21240643   0.22540747   0.41371856 
 3834000    308.84367    307.43306    163.30867   -183005.85    820.16996   -182185.68    165254.92   0.80346074   0.21225912   0.22557658   0.41376548 
 3836000    307.21784    306.26835    -214.1571   -183002.58    817.06273   -182185.52    164986.67   0.80366544   0.21243305   0.22553535   0.41387795 
 3838000    306.58885    305.99184    43.242838   -183001.84    816.32508   -182185.52    165187.08   0.80371717   0.21240428   0.22541428   0.41384525 
 3840000    305.01671    304.80538   -191.12554   -182998.66    813.15983    -182185.5    165607.51    0.8035163   0.21243988   0.22542938   0.41379519 
 3842000    308.08337    307.71468   -257.75768   -183006.47    820.92126   -182185.55     166849.2   0.80325339   0.21238022   0.22567543   0.41376968 
 3844000    307.43524    306.33556     -160.672    -183002.6    817.24205   -182185.36     168343.3   0.80344661    0.2123262   0.22560669   0.41379317 
 3846000    307.52323    305.83042   -145.19277   -183001.22    815.89442   -182185.32    169455.23   0.80380491   0.21224617   0.22553977   0.41386362 
 3848000    304.35372    306.08934    -73.22169   -183001.95    816.58519   -182185.36    169458.97   0.80331935   0.21211192   0.22559678   0.41367602 
 3850000    306.53816    307.04804   -38.170214   -183004.49     819.1428   -182185.35     168266.7   0.80296222   0.21186051   0.22554381   0.41345551 
 3852000    307.17899    305.77789   -92.977872   -183001.22     815.7543   -182185.47    166764.55   0.80278679   0.21202373    0.2254998   0.41343677 
 3854000    303.94805    304.46783   -244.69863   -182997.71    812.25933   -182185.45    165907.63   0.80221137   0.21282818   0.22576426   0.41360127 
 3856000    307.05266    307.27008    3.3639005   -183005.24    819.73517   -182185.51    165680.69   0.80197946   0.21269331   0.22531498   0.41332925 
 3858000    306.89804    305.79695    24.484924   -183001.29    815.80515   -182185.48     166278.8   0.80150583   0.21270365   0.22519685   0.41313544 
 3860000    306.92131    305.62484   -258.49941   -183000.77    815.34598   -182185.43    167385.77   0.80111525   0.21252411   0.22510785   0.41291574 
 3862000    306.46803    305.96653    29.704364   -183001.65    816.25754   -182185.39     167964.9   0.80065463   0.21241343   0.22493275   0.41266694 
 3864000    306.79234    307.08296    73.161929   -183004.77    819.23597   -182185.53    167636.37   0.80036357    0.2123042   0.22491738   0.41252838 
 3866000     309.3971      308.182   -80.585071   -183007.75    822.16798   -182185.58    166549.13   0.80073542   0.21273521   0.22495563   0.41280875 
 3868000    305.43263    304.04511    -275.4075   -182996.67    811.13159   -182185.54    165211.68     0.800375   0.21258717     0.224813   0.41259172 
 3870000    307.86829    307.77371     2.324425   -183006.49    821.07874   -182185.41    164042.02   0.80024286   0.21286326   0.22476065   0.41262225 
 3872000    307.03796    306.25897    97.973412   -183002.49    817.03773   -182185.45    163687.74   0.79990031   0.21264993   0.22465255   0.41240093 
 3874000    308.21994    307.58725    28.640762   -183006.02    820.58132   -182185.44    164704.59   0.79959261   0.21248761   0.22447747    0.4121859 
 3876000    303.65973      304.319   -85.448372   -182997.21    811.86227   -182185.35    165190.55   0.79924398   0.21257319   0.22515405   0.41232374 
 3878000    306.98256    306.30901   -120.75183   -183002.63    817.17123   -182185.46    165238.53   0.79886149   0.21252853   0.22593568    0.4124419 
 3880000    305.70709    307.58734    56.961177   -183006.04    820.58155   -182185.46    164736.48   0.79887783   0.21247266   0.22581868   0.41238972 
 3882000    307.14431    306.33561    44.164676   -183002.53    817.24218   -182185.28    164455.82   0.79954915   0.21249466   0.22589441   0.41264607 
 3884000    306.83835    306.68268    107.17866   -183003.59    818.16811   -182185.42    165229.93   0.79916304   0.21236345   0.22577891   0.41243514 
 3886000    306.22651    305.12541     95.86641   -182999.22    814.01362   -182185.21    166507.83   0.79891849    0.2124331    0.2258876   0.41241306 
 3888000    305.04956    305.51663   -325.75635   -183000.32    815.05729   -182185.26    167343.72    0.7989319    0.2122222    0.2256529     0.412269 
 3890000     305.6091    307.88628     -293.165   -183006.75    821.37907   -182185.38    167060.35   0.79902823   0.21220929   0.22553821   0.41225858 
 3892000    305.34288    306.24324     22.94565   -183002.47    816.99576   -182185.47    165575.92   0.79866179   0.21208647   0.22652324   0.41242383 
 3894000    308.07745    307.09746   -16.976166   -183004.59    819.27464   -182185.32    164139.58   0.79840311    0.2119303   0.22647248   0.41226863 
 3896000    302.81879    305.05655    30.468398   -182999.18    813.82991   -182185.35    164015.63   0.79875558   0.21192693   0.22645913   0.41238055 
 3898000    309.25098    309.23979   -188.76388   -183010.33    824.98996   -182185.34    163990.22   0.79942736   0.21179138   0.22639316    0.4125373 
 3900000    306.75585    306.54503    25.967528   -183003.18    817.80088   -182185.37    163764.71   0.80070577   0.21170173   0.22634047   0.41291599 
 3902000    304.08984    305.70309    63.619702   -183000.96    815.55475   -182185.41    164065.03   0.80127769   0.21158801   0.22619819   0.41302129 
 3904000    304.00979    305.81887   -42.870933    -183001.2    815.86363   -182185.33    164609.81   0.80094291   0.21170141   0.22607776   0.41290736 
 3906000    307.41118    308.17607   -110.08872   -183007.52    822.15215   -182185.37    164584.89   0.80056053    0.2119302   0.22599656    0.4128291 
 3908000    308.10768    306.54444   -117.94943   -183003.05    817.79931   -182185.25    164714.15   0.80046489   0.21226382   0.22598048   0.41290306 
 3910000    307.80744    307.77967    36.246368   -183006.41    821.09465   -182185.31     164824.5   0.80036663   0.21220943   0.22593486   0.41283697 
 3912000    305.84094    306.78537   -151.52843   -183003.71    818.44205   -182185.27    164656.99   0.80017081   0.21211399   0.22582366   0.41270282 
 3914000    309.17199    307.14213    245.77812   -183004.68    819.39382   -182185.28    165348.85   0.79980746   0.21247619   0.22584867   0.41271078 
 3916000    305.75464    305.33048   -77.805594    -182999.9     814.5607   -182185.34    166026.18   0.79950975   0.21231566   0.22568692   0.41250411 
 3918000    303.36492    305.49349    28.677973   -183000.28    814.99558   -182185.29    166753.74   0.79908964   0.21243277   0.22579084   0.41243775 
 3920000    307.79729    307.82325   -140.97005   -183006.61    821.21092    -182185.4    166982.17   0.79891478   0.21233016   0.22582781   0.41235759 
 3922000    306.06827    305.21145   -26.816907   -182999.55    814.24315   -182185.31    166355.46   0.79863321     0.212201   0.22568189   0.41217203 
 3924000    305.19516    306.45178   -65.106501    -183002.8    817.55211   -182185.25     165450.6   0.79842287   0.21207873   0.22560281    0.4120348 
 3926000    306.14952    306.11895   -181.27106   -183001.91    816.66417   -182185.24    164999.35   0.79889235    0.2122216   0.22546158   0.41219184 
 3928000    307.12828    305.86826     -63.1688   -183001.29    815.99538   -182185.29    165302.09   0.79920104   0.21206385   0.22532387   0.41219625 
 3930000    308.83751     308.1343    8.0840575   -183007.48    822.04072   -182185.44    165786.45   0.79899071   0.21197893   0.22527097    0.4120802 
 3932000    307.69386    304.79867   -40.993863    -182998.3    813.14192   -182185.16    166275.41   0.79891057   0.21206843   0.22554862   0.41217587 
 3934000    308.68073    307.46155   -75.535456   -183005.52    820.24596   -182185.27    165923.79   0.79879139   0.21209698     0.226002   0.41229679 
 3936000    306.55494    306.75794    -61.82657   -183003.62    818.36887   -182185.25    165425.34   0.79860299   0.21201132    0.2258714   0.41216191 
 3938000    311.82479    308.58805   -14.342047   -183008.63    823.25125   -182185.38    164371.01   0.79842133   0.21186411   0.22571424    0.4119999 
 3940000    309.22882    307.51486   0.33992929    -183005.7    820.38819   -182185.32    163668.13   0.79805606   0.21193768   0.22569572   0.41189649 
 3942000     307.4301    307.51939   -80.635922   -183005.61    820.40027   -182185.21     163166.5   0.79882352   0.21192006   0.22587443     0.412206 
 3944000    309.74916    307.64957    36.231171    -183006.1    820.74755   -182185.36    163666.62   0.79828031   0.21191409   0.22593349   0.41204263 
 3946000    310.57194    308.78498   -124.06563   -183009.13    823.77662   -182185.35     164512.3   0.79793472   0.21181409   0.22575906   0.41183595 
 3948000    308.98919    307.28031   -127.83391   -183005.01    819.76246   -182185.25    165503.27    0.7975802   0.21178268   0.22577458   0.41171248 
 3950000    306.94072    305.98632    9.4373704   -183001.56    816.31034   -182185.25     166419.4   0.79768103   0.21169665   0.22569282   0.41169017 
 3952000    304.67622    306.80846    6.8662163   -183003.68    818.50366   -182185.18    166684.41   0.79708329   0.21167683   0.22563503   0.41146505 
 3954000     306.6092    306.08858   -228.99997   -183001.85    816.58315   -182185.27    166380.76   0.79702206   0.21155979    0.2257717   0.41145119 
 3956000     304.6753    303.77504    95.903185   -182995.63     810.4111   -182185.22    165975.85   0.79655055   0.21165183   0.22569095   0.41129778 
 3958000    308.50251    308.06271   -268.01484   -183007.11    821.84974   -182185.26    165889.87   0.79617707   0.21159703   0.22560368   0.41112593 
 3960000    306.89004    307.89416   -266.13739   -183006.62    821.40008   -182185.22    167135.34   0.79642359   0.21148733    0.2254731   0.41112801 
 3962000    305.67624    305.39801   -232.23205   -182999.97    814.74086   -182185.23    167548.57   0.79636467   0.21135673   0.22526843   0.41099661 
 3964000     304.2908    304.94253   -226.79764   -182998.71    813.52572   -182185.18    167074.57   0.79675336   0.21161201     0.225645   0.41133679 
 3966000    305.31242    306.06875    -30.50934   -183001.55    816.53024   -182185.02    166422.15   0.79633409   0.21185863   0.22528903   0.41116058 
 3968000    303.07275    303.39245   -158.77885   -182994.69    809.39043    -182185.3    166836.05   0.79601419   0.21162517   0.22518019   0.41093985 
 3970000    307.32806    306.24674    28.393914   -183002.13    817.00508   -182185.12    166659.62   0.79551401   0.21147409   0.22531961   0.41076924 
 3972000    303.35601    305.46612   -218.52529   -183000.05    814.92255   -182185.12    167007.16    0.7950131   0.21146802   0.22580513   0.41076208 
 3974000    305.06467     305.5011   -83.664486   -183000.32    815.01587   -182185.31    166566.45   0.79464734   0.21130898   0.22568174   0.41054602 
 3976000    305.19099    305.42797    77.533559   -182999.86    814.82077   -182185.04    164957.55   0.79520627   0.21165044   0.22567146   0.41084272 
 3978000    306.28379    307.08771   -202.00395   -183004.43    819.24862   -182185.18    163710.23   0.79558439   0.21161208   0.22555894   0.41091847 
 3980000    306.40186    306.00311   -98.924914   -183001.54    816.35513   -182185.18    163566.75   0.79515538   0.21155461   0.22549474   0.41073491 
 3982000    309.33202    308.46213    40.008232   -183008.23     822.9153   -182185.32    163897.24   0.79487219   0.21144858   0.22564601   0.41065559 
 3984000    307.07664    307.22718   -178.52492   -183004.59    819.62071   -182184.97    165615.33   0.79444848   0.21157965   0.22572845   0.41058552 
 3986000    307.37809    309.47368   -198.29963   -183010.84    825.61392   -182185.23    166979.53   0.79438768   0.21140647   0.22570107   0.41049841 
 3988000    308.63128    308.31929   -196.27729   -183007.73    822.53425    -182185.2    167320.13   0.79436299   0.21127775   0.22556131   0.41040069 
 3990000    304.38059    305.78364     112.8859   -183000.75    815.76964   -182184.98    166793.88   0.79394317   0.21114391   0.22553958   0.41020889 
 3992000    308.31406    308.86067   -180.31053   -183009.27    823.97853   -182185.29    165791.64   0.79377597   0.21115385   0.22553362   0.41015448 
 3994000    302.94297    305.24048   -8.7985184   -182999.29    814.32059   -182184.97    165404.38   0.79527356    0.2110837   0.22542214   0.41059313 
 3996000    306.22201     307.9971   -143.33754   -183006.88    821.67472   -182185.21    165511.13   0.79666404   0.21135847   0.22572022   0.41124758 
 3998000    304.71481    305.53613    186.80534   -183000.06    815.10932   -182184.95    165730.17   0.79677474   0.21132321   0.22571059   0.41126951 
 4000000    307.01394    308.15138  -0.73356089   -183007.26    822.08629   -182185.17    165850.65   0.79684071   0.21113137   0.22559929   0.41119045 
 4002000    306.51481    306.95539   -116.51873   -183003.96    818.89563   -182185.07    165491.74   0.79703712   0.21096351   0.22552299   0.41117454 
 4004000    305.74737    305.87098   -55.217376   -183000.87    816.00263   -182184.87    165630.73    0.7965441   0.21086566    0.2255112   0.41097365 
 4006000    304.25823     306.7105   -216.02779   -183003.11    818.24231   -182184.87    165637.36     0.796467   0.21092466   0.22548736   0.41095968 
 4008000    311.67505    308.18448   -141.49046   -183007.26    822.17459   -182185.08    165327.99   0.79607746   0.21092936   0.22535693   0.41078792 
 4010000    309.50426    308.76961   -165.68719   -183008.86    823.73561   -182185.12    165081.73   0.79574601   0.21095043   0.22524777   0.41064807 
 4012000    307.90208    307.43861    54.115097    -183005.2    820.18477   -182185.01    164937.33    0.7958905   0.21080316   0.22535608   0.41068325 
 4014000    308.11063    307.97348    13.198684   -183006.54    821.61169   -182184.93    164405.68   0.79693546   0.21085153    0.2253078    0.4110316 
 4016000    309.37354    307.52017    108.97531   -183005.41    820.40235      -182185    164453.65   0.79717749   0.21078115   0.22519985   0.41105283 
 4018000    308.26111    306.37359   -45.584499   -183002.31    817.34351   -182184.96    164846.88   0.79722158   0.21073527   0.22538769   0.41111485 
 4020000    308.24296    306.32078   -64.311314   -183002.13    817.20262   -182184.93    164919.57   0.79732288   0.21073395   0.22516745   0.41107476 
 4022000    308.51127    307.13507    10.935951   -183004.29    819.37498   -182184.92    165476.26   0.79708209   0.21057095   0.22506221   0.41090508 
 4024000    311.31265    308.98536   -131.14097   -183009.06     824.3112   -182184.74    165695.95   0.79678586   0.21056841   0.22489888   0.41075105 
 4026000    309.52466    305.95407    22.415112    -183001.2     816.2243   -182184.98    165747.68   0.79643329    0.2104746   0.22529717   0.41073502 
 4028000    307.07832    306.62586   -145.68294    -183002.8    818.01652   -182184.78    165472.41   0.79624669   0.21034127   0.22527197   0.41061998 
 4030000    306.77745    307.24529   -56.779499   -183004.53    819.66904   -182184.86     165155.1   0.79801264   0.21039555   0.22518263   0.41119694 
 4032000    307.47754    306.95207   -112.55028   -183003.93    818.88677   -182185.05    165159.38   0.79919122   0.21046841   0.22545923   0.41170629 
 4034000    305.14732    306.40337   -100.02422   -183002.48    817.42294   -182185.06    165462.39   0.79901146   0.21056077   0.22569613   0.41175612 
 4036000    302.81686      307.213   -295.47704    -183004.4    819.58288   -182184.82    165856.21   0.79902079   0.21053395    0.2259285   0.41182775 
 4038000    306.03583    306.53904   -106.84708   -183002.69    817.78488   -182184.91    166111.66   0.79861842   0.21040092   0.22587692   0.41163209 
 4040000     307.5411    307.18233   -181.48691    -183004.5    819.50105   -182184.99    166234.95    0.7984006   0.21036948   0.22581285   0.41152764 
 4042000    305.08435    306.16516   -282.44263   -183001.68    816.78745   -182184.89    165321.66    0.7980992   0.21039021   0.22579203   0.41142714 
 4044000    306.74074     307.3373   -47.334437   -183004.79    819.91449   -182184.87    164781.39   0.79789114   0.21036329   0.22565929   0.41130458 
 4046000    306.20759    307.20469    87.501535   -183004.44    819.56072   -182184.88    164500.48   0.79829621   0.21054624   0.22582632   0.41155626 
 4048000    306.12907    307.02476   -215.61207   -183003.99    819.08069   -182184.91     164262.1   0.79871664   0.21052555   0.22586603   0.41170274 
 4050000    309.72636    310.52728    28.863469   -183013.32    828.42471   -182184.89    164664.64   0.79862504   0.21041363   0.22560968   0.41154945 
 4052000    307.61052    307.83985    33.819224   -183005.95     821.2552   -182184.69    165859.09   0.79870951    0.2103793   0.22576633   0.41161838 
 4054000    305.69987    306.92632   -47.134378   -183003.56    818.81809   -182184.74    166896.03   0.79855489   0.21027217   0.22544065   0.41142257 
 4056000    306.13756    306.11615   -108.85214   -183001.44    816.65672   -182184.79    166573.95   0.79935126   0.21013653   0.22539545   0.41162775 
 4058000    304.73254    304.89037   -275.86667   -182998.26    813.38657   -182184.88    165576.11   0.79930332   0.21011762   0.22544746    0.4116228 
 4060000    307.11927    309.30113    164.84779   -183009.97    825.15361   -182184.82    164906.61   0.79956479   0.21005109   0.22552731    0.4117144 
 4062000    303.91125    305.32119   -83.436976   -182999.27    814.53592   -182184.74    164702.96   0.79988421   0.20995285   0.22537557   0.41173754 
 4064000    305.75265    305.59864   -134.04832      -183000    815.27609   -182184.73    164915.23   0.80058524     0.209873   0.22555164   0.41200329 
 4066000    305.40149    308.21764   -146.64182   -183007.14    822.26305   -182184.87    165281.23   0.80045272   0.20986871   0.22536701   0.41189615 
 4068000    306.73068     308.8339   -159.46914   -183008.61    823.90713    -182184.7    165950.84   0.80004404   0.20973554   0.22518101   0.41165353 
 4070000    307.51511    307.36128   -196.84806   -183004.81    819.97847   -182184.83    166460.02   0.79968698   0.20961065   0.22518344   0.41149369 
 4072000    304.90033    305.64673    20.034079   -183000.19    815.40438   -182184.78    166933.99   0.79944381   0.20947295   0.22518168   0.41136615 
 4074000    306.04146    307.20749   -174.20466   -183004.27    819.56818    -182184.7    166749.15   0.79916794   0.20939732   0.22511731   0.41122752 
 4076000    306.39696    308.56931   -132.25347   -183007.88    823.20125   -182184.68    166550.52   0.79927858   0.20917893   0.22504649     0.411168 
 4078000    307.45971    306.57886   -167.65237   -183002.72    817.89113   -182184.83       166336   0.79918494   0.20902044   0.22536844   0.41119127 
 4080000    306.33882    306.24588   -181.22499   -183001.64    817.00281   -182184.64    165799.44   0.79941443   0.20907949   0.22566552   0.41138648 
 4082000    306.05241    306.92321    118.35235   -183003.39    818.80978   -182184.58    166113.14   0.80029377    0.2088946   0.22553873    0.4115757 
 4084000    307.68349    308.20966    -32.82886   -183006.78    822.24177   -182184.54    165982.97   0.80017461   0.20892661   0.22545793   0.41151972 
 4086000    311.19319      309.097   -87.844936   -183009.38    824.60902   -182184.77    165783.43   0.79983303   0.20920673    0.2256825   0.41157409 
 4088000    309.18028    307.37736    -40.28979   -183004.88    820.02136   -182184.86    165711.16   0.79964376   0.20946547   0.22566843   0.41159255 
 4090000    308.47075    308.42182    211.26709   -183007.58    822.80776   -182184.78    165795.14   0.80006378   0.20934219   0.22545598   0.41162065 
 4092000    307.06466    307.85403   -39.316793   -183006.02    821.29301   -182184.73    165574.04   0.80164309   0.20925583    0.2253419   0.41208028 
 4094000    305.91991    307.20814   -15.616666   -183004.19    819.56993   -182184.62    165474.77     0.802035   0.20915184   0.22531578   0.41216754 
 4096000    306.13116    307.23099   -94.335637   -183004.32    819.63087   -182184.68    165992.58     0.801741   0.20921407   0.22516504   0.41204004 
 4098000    307.84412    309.56637   -267.68978   -183010.47    825.86122   -182184.61    165701.28   0.80132068   0.20920541   0.22502617   0.41185075 
 4100000    307.21427    307.69263    81.943342   -183005.46    820.86244    -182184.6    166399.56   0.80119814   0.20915461   0.22494579   0.41176618 
 4102000    304.73812    304.99957   -114.42375   -182998.15    813.67788   -182184.47    166470.43    0.8012801    0.2090238   0.22491627   0.41174006 
 4104000    308.64376    307.40347    106.40579   -183004.76    820.09102   -182184.66    166766.08   0.80103639   0.20886232   0.22476618   0.41155497 
 4106000    304.66606    305.94447    -95.17431   -183000.89     816.1987   -182184.69    166814.42   0.80071139   0.20871171   0.22464453   0.41135588 
 4108000    308.49655    307.76903    110.85975   -183005.64    821.06627   -182184.58    166811.97   0.80149323   0.20865888   0.22453751   0.41156321 
 4110000    307.81569    307.85945    40.727542   -183005.88    821.30748   -182184.57    166284.01    0.8019137   0.20861847   0.22446779   0.41166665 
 4112000    305.38521    306.80657    172.08682   -183003.04    818.49862   -182184.54    166049.88   0.80198532   0.20870422   0.22446249   0.41171735 
 4114000    305.30374    305.09037   -59.894643   -182998.34    813.92013   -182184.42     165912.5   0.80203665   0.20861555   0.22440362   0.41168528 
 4116000    305.69022    307.52866   -94.683987    -183005.1    820.42499   -182184.67    165706.92   0.80210826   0.20863982    0.2244477   0.41173193 
 4118000    307.16112    308.65062   -137.36208   -183008.02    823.41816   -182184.61     165425.3   0.80190147   0.20846737   0.22462306   0.41166397 
 4120000    308.89013    306.33818   -91.904971   -183001.89    817.24904   -182184.64    165990.64   0.80152286   0.20834395   0.22475266   0.41153982 
 4122000    309.26443    309.35305   -18.086586   -183009.99     825.2921    -182184.7    166553.77   0.80118928   0.20826629   0.22462487   0.41136014 
 4124000    309.39853    308.36609   -22.920197   -183007.42     822.6591   -182184.76    166453.79   0.80089271   0.20894804   0.22462909   0.41148995 
 4126000    308.17997    307.71358    -168.3404   -183005.65    820.91832   -182184.73    165755.27   0.80047237   0.20941321   0.22458308   0.41148955 
 4128000    311.15739    307.54228    39.505999   -183005.01    820.46134   -182184.55    165206.13   0.80080053   0.20981569   0.22448829   0.41170151 
 4130000    310.03392    307.76439    136.79934   -183005.71    821.05388   -182184.66    164791.68   0.80042945   0.20959172   0.22437828   0.41146648 
 4132000    309.26462    307.07825   -97.738195   -183003.87    819.22339   -182184.65    165412.81   0.80029357   0.20949373   0.22443578   0.41140769 
 4134000     309.2689    308.52113   -138.55424   -183007.61     823.0727   -182184.53    165911.36   0.79994055   0.20960168   0.22456165   0.41136796 
 4136000      309.596    307.19368   -134.00715   -183004.08    819.53134   -182184.55    166186.26   0.79957666   0.21007007    0.2246411   0.41142928 
 4138000    306.29926    307.64949   -4.5559501   -183005.26    820.74735   -182184.51    165623.48   0.79931856   0.20994232   0.22457912      0.41128 
 4140000     307.1667    306.29409   -161.94952   -183001.75    817.13141   -182184.62    165389.79   0.79954156   0.20995291   0.22459354   0.41136267 
 4142000    311.52638    308.75995   -1.7775467   -183008.26    823.70984   -182184.55    164936.28   0.79945398   0.20976043   0.22441196   0.41120879 
 4144000    306.26703    307.23883   -44.042748   -183004.23     819.6518   -182184.57    164641.83   0.79920536   0.20972885   0.22428133   0.41107185 
 4146000    307.61231    307.45837   -179.76036   -183004.85    820.23748   -182184.61    164949.73   0.79891203   0.20964989   0.22457697    0.4110463 
 4148000    306.44594    307.20212   -219.41116    -183004.2    819.55385   -182184.64    165184.17    0.7988892   0.20959782   0.22432695   0.41093799 
 4150000    307.79764    306.94328    -62.76078   -183003.25    818.86333   -182184.39    165775.07   0.79887461   0.20951339   0.22416322   0.41085041 
 4152000     309.0295    306.73963    30.340635   -183002.81    818.32001   -182184.49    166179.74   0.79846702   0.20957944   0.22403139   0.41069262 
 4154000    309.88464    307.77706    -63.00437   -183005.57    821.08769   -182184.48    165749.42   0.79826368   0.20963849    0.2240036   0.41063526 
 4156000    305.04386    306.77012    -125.6311   -183002.94    818.40136   -182184.54    165331.69    0.7981864   0.20954813   0.22387981   0.41053811 
 4158000     309.2726    308.23908   -64.272334   -183006.96    822.32025   -182184.64    165161.31   0.79771665   0.20954002   0.22378417   0.41034695 
 4160000    310.54902     309.1953    100.55033   -183009.51    824.87125   -182184.64    165160.77   0.79788777   0.20959841   0.22370961   0.41039859 
 4162000    308.08779     307.7078   -103.75556   -183005.53    820.90291   -182184.63    165455.71   0.79753647   0.20983206   0.22363419   0.41033424 
 4164000    306.65998    305.84511    77.124937   -183000.51    815.93361   -182184.58    166084.24   0.79741437   0.21003893    0.2237721   0.41040847 
 4166000    306.74639    306.09658   -13.085186   -183001.19     816.6045   -182184.58     166909.1   0.79741229    0.2101009   0.22373959   0.41041759 
 4168000    306.10085    305.84826   -106.68938   -183000.39    815.94202   -182184.45    168034.95   0.79787841   0.21086334   0.22352631   0.41075602 
 4170000    307.45736     306.6331   -15.484744   -183002.52    818.03584   -182184.49    168354.95   0.79959845   0.21105844   0.22341857   0.41135848 
 4172000    304.91557    305.65007   -157.69055   -182999.86     815.4133   -182184.44       167780   0.79976228   0.21096416   0.22334542   0.41135729 
 4174000    306.53843    305.15098   -178.93853   -182998.56    814.08181   -182184.47    167055.03   0.79979163   0.21088462   0.22328942   0.41132189 
 4176000    305.06585     306.1792   -95.346511   -183001.47    816.82492   -182184.64    166714.55   0.79918524    0.2108123   0.22333997    0.4111125 
 4178000      311.648    309.55974    11.668296   -183010.42    825.84352   -182184.58    166642.26   0.79877977   0.21073629   0.22315653   0.41089086 
 4180000    307.76039    306.59918   -123.89084   -183002.58    817.94533   -182184.63    166182.94   0.79880616   0.21062362   0.22292937   0.41078638 
 4182000    310.98494    309.80429   -24.823285   -183011.04    826.49593   -182184.54    166040.54   0.79944142   0.21045049   0.22352264   0.41113818 
 4184000    309.82334    308.21239    31.893672   -183006.69    822.24906   -182184.44    165566.67   0.79913631   0.21032282    0.2233563   0.41093848 
 4186000    309.72069    308.34411    14.770755   -183007.24    822.60046   -182184.64    166164.13   0.79911136   0.21035466   0.22310016    0.4108554 
 4188000    308.72573    305.32346    153.77298   -182999.19    814.54197   -182184.65    167219.95   0.79875963   0.21021236   0.22324843   0.41074014 
 4190000    308.35039     306.7755    117.87503    -183003.1    818.41572   -182184.68    167852.54   0.79836269   0.21030686   0.22313383   0.41060113 
 4192000    311.56456    307.72948   -155.39247   -183005.47    820.96076   -182184.51    167945.91    0.7986273   0.21042417   0.22327796   0.41077648 
 4194000    309.41511    307.55373    67.650472   -183005.05    820.49189   -182184.56     167883.9   0.80024279   0.21035132   0.22320284   0.41126565 
 4196000    307.67543    307.55792   -135.08079   -183005.05    820.50307   -182184.54    167019.61   0.80037013   0.21027851   0.22315203   0.41126689 
 4198000    308.46001    307.89532   -323.76282   -183006.03    821.40318   -182184.63    166097.61   0.80020482   0.21024703   0.22302733   0.41115972 
 4200000    307.67396    305.12652   -145.81947   -182998.67    814.01658   -182184.66    166011.65   0.79980144   0.21017014   0.22318647   0.41105268 
 4202000    312.31582    308.93913   -45.332252   -183008.87    824.18785   -182184.68    166637.28   0.79947174   0.21022267   0.22316242   0.41095228 
 4204000    311.59886    309.07489    72.365777   -183009.13    824.55004   -182184.58    167537.75   0.79907639   0.21027177   0.22303919   0.41079578 
 4206000    309.97142    307.59318   -193.60638   -183005.14    820.59712   -182184.55    167457.96   0.79973282   0.21011443   0.22296299   0.41093675 
 4208000     307.2958    305.59968    88.046229   -182999.83    815.27886   -182184.55    167235.02   0.80180785   0.21000926   0.22294658    0.4115879 
 4210000    308.44454    305.59333   -114.58682   -182999.87    815.26192   -182184.61    166738.49   0.80233049   0.20993667    0.2227094   0.41165885 
 4212000    309.74313    307.36461    37.653521   -183004.62    819.98735   -182184.63     166538.5   0.80373948   0.20995405   0.22258923   0.41209426 
 4214000    306.13795    306.53517    -222.8279   -183002.36    817.77456   -182184.58    166345.46   0.80397992   0.20985568   0.22244794   0.41209451 
 4216000    309.28991    307.61698    6.2341792    -183005.2    820.66061   -182184.54    165576.58   0.80411145   0.20988502   0.22232722    0.4121079 
 4218000     311.6774    308.45592    12.616924   -183007.57    822.89875   -182184.67    164621.55   0.80404151   0.20976063   0.22251801   0.41210672 
 4220000     310.4672     306.6264   -155.80533   -183002.64    818.01794   -182184.63    164825.13   0.80416633   0.20992319   0.22271565   0.41226839 
 4222000    311.85549    308.58598    11.314358   -183007.83    823.24573   -182184.59    165444.35   0.80421778   0.20981323   0.22278298   0.41227133 
 4224000    307.86265    305.85998   -292.74697   -183000.68    815.97329   -182184.71    165726.39   0.80425865   0.20970665   0.22270583   0.41222371 
 4226000    307.55115    306.26301    74.478755   -183001.59    817.04851   -182184.54    165559.39   0.80398747   0.20964677   0.22292195    0.4121854 
 4228000    305.79794    307.20566    79.411282   -183004.18     819.5633   -182184.62    164924.77   0.80379263   0.20951361   0.22265836    0.4119882 
 4230000    309.01902    308.21563   -14.916102   -183006.94    822.25771   -182184.69    164491.19   0.80415652   0.20934212   0.22275209   0.41208358 
 4232000    306.82449    308.00971   -244.88421   -183006.33    821.70835   -182184.62    164902.22   0.80407666   0.20920255   0.22282044   0.41203322 
 4234000    306.92216    308.51941   -97.662831   -183007.77    823.06814    -182184.7    165465.33   0.80441093   0.20920997    0.2227747   0.41213186 
 4236000    307.31065    305.82164    11.587275   -183000.38      815.871   -182184.51    165410.13   0.80525418   0.20922587   0.22269034   0.41239013 
 4238000    305.85377    305.72703   -10.228266    -183000.2    815.61862   -182184.58    165234.19   0.80489493   0.20944214   0.22312007   0.41248572 
 4240000    307.32627    307.08681    132.32796    -183003.9    819.24624   -182184.65    165089.56   0.80482371    0.2095156   0.22358291   0.41264074 
 4242000    309.37476    308.06537   -157.18443   -183006.49    821.85683   -182184.64    165247.97   0.80502852   0.20947632   0.22351214   0.41267233 
 4244000    308.71758    307.16583    126.90804   -183003.99    819.45705   -182184.53    165487.74   0.80469191   0.21000501   0.22339664   0.41269785 
 4246000    308.22824    306.49875   -32.886115   -183002.29    817.67741   -182184.61    165731.29   0.80431756   0.20974624   0.22333421   0.41246601 
 4248000    309.05719    306.74143   -147.55481   -183002.82    818.32483   -182184.49    165798.38   0.80420816   0.20989249   0.22328585   0.41246217 
 4250000    307.32297    304.93571    134.56617   -182998.01    813.50754    -182184.5    166077.48     0.804563   0.20983025   0.22317046   0.41252124 
 4252000    307.52293    306.33287   -80.029235   -183001.56    817.23487   -182184.32    165918.71    0.8044488   0.21023994   0.22305115   0.41257996 
 4254000    307.13898    306.67446   -238.22081   -183002.46    818.14615   -182184.31    166451.97   0.80433538   0.21032673   0.22294492   0.41253567 
 4256000    304.73984    304.11036   -167.61109   -182995.54    811.30565   -182184.24    167220.15   0.80465126   0.21015345    0.2235423   0.41278234 
 4258000    306.17345    305.92646    52.726402   -183000.43    816.15064   -182184.28    167738.19   0.80440054   0.21031424   0.22473398   0.41314958 
 4260000    307.64059     307.9264   -155.09594   -183005.77     821.4861   -182184.28    166810.08   0.80415674    0.2103507   0.22469167   0.41306637 
 4262000    309.14371    307.90485   -149.85959    -183005.9     821.4286   -182184.47    166140.22   0.80475646   0.21025421   0.22455167   0.41318745 
 4264000     308.8078    306.38263   -122.67436   -183001.65    817.36763   -182184.28    165747.28   0.80532898   0.21007984   0.22512418     0.413511 
 4266000    305.00757    306.06038   -60.966812   -183000.78    816.50793   -182184.28    165518.11   0.80503638   0.21006247   0.22511987   0.41340624 
 4268000    308.23151     308.3113   -54.666749    -183006.7    822.51293   -182184.19    165939.46   0.80480319   0.20999189   0.22519467   0.41332991 
 4270000    309.45045    307.36198     215.0657   -183004.31    819.98034   -182184.33    166975.67   0.80454719   0.21006323   0.22514874   0.41325305 
 4272000    306.05993    306.60302   -63.692182   -183002.07    817.95558   -182184.11    167683.02   0.80484803   0.21037726   0.22512503   0.41345011 
 4274000     304.3943     307.3895   -46.282472   -183004.15    820.05375    -182184.1    168194.72   0.80526244   0.21021827   0.22511916   0.41353329 
 4276000    309.25518    308.71045   -47.401505   -183007.65    823.57779   -182184.07    168417.57   0.80606011   0.21014663   0.22500811   0.41373828 
 4278000    307.05821    306.71307   -212.52567   -183002.62    818.24917   -182184.37    167960.55    0.8063901    0.2102266    0.2249011   0.41383927 
 4280000    306.78631    306.84594   -100.57594   -183002.79    818.60363   -182184.18     167752.5   0.80644188   0.21025091   0.22498065   0.41389115 
 4282000     307.9506     307.8201   -72.471552   -183005.43     821.2025   -182184.23    167554.47   0.80606207   0.21015047   0.22559835   0.41393696 
 4284000    310.81314    309.35099   -107.96919   -183009.61    825.28662   -182184.32    167563.17   0.80568004   0.21028729   0.22575521   0.41390751 
 4286000    304.17474     305.0582   -6.9182351   -182997.95    813.83431   -182184.12    167073.36   0.80624361   0.21014493   0.22566167   0.41401673 
 4288000     306.1277    306.88945    22.787174   -183002.86    818.71973   -182184.14     166552.3   0.80678451   0.21010273   0.22572416    0.4142038 
 4290000    308.24065    307.18811   -138.47349   -183003.57    819.51647   -182184.05    165907.87   0.80685824   0.20998104   0.22578603   0.41420844 
 4292000    306.26753    306.94665   -116.96022   -183003.07    818.87231    -182184.2    165686.39   0.80694302   0.20983449   0.22576789    0.4141818 
 4294000    309.40049    310.20286   -52.193704    -183011.6    827.55922   -182184.05    165731.23    0.8077062   0.20978578   0.22560662    0.4143662 
 4296000    304.36189    304.28565     -112.196   -182995.79    811.77331   -182184.02    166077.66   0.80835752    0.2099377   0.22550627    0.4146005 
 4298000     306.3864    307.25547   -163.54797   -183003.82    819.69617   -182184.13    166452.09   0.80866963   0.20983125   0.22541714   0.41463934 
 4300000     308.0261    307.16575    7.5118639   -183003.52    819.45683   -182184.07     167425.3    0.8083376   0.20979667   0.22523881   0.41445769 
 4302000    305.60902    306.75058    35.935197   -183002.36    818.34923   -182184.01    168312.25   0.80800587   0.20970713   0.22519627   0.41430309 
 4304000    305.83855    303.97463    154.27574   -182994.92    810.94355   -182183.98    168639.02   0.80764227   0.20963021   0.22504871   0.41410706 
 4306000    305.61828    307.27424    67.802345   -183003.79    819.74625   -182184.04    168111.83   0.80729974    0.2095752   0.22492114   0.41393203 
 4308000    310.56803    307.75634   -138.46507   -183005.06    821.03239   -182184.02    167004.69   0.80692631   0.20950265   0.22491128   0.41378008 
 4310000    306.24467    305.50005   -91.479993   -182999.03    815.01307   -182184.02    166460.82   0.80652876   0.20951801   0.22484865    0.4136318 
 4312000    306.63622    305.65445   -152.23028   -182999.44    815.42499   -182184.02     165927.4   0.80643648   0.20932414    0.2248076   0.41352274 
 4314000    310.49529    308.37374    111.16027   -183006.65    822.67951   -182183.97    165616.86   0.80660215   0.20935033   0.22478192   0.41357813 
 4316000     307.3958     306.8239   -213.51793   -183002.49    818.54484   -182183.95    166161.26   0.80713407   0.20920265   0.22474556   0.41369409 
 4318000    306.26625    304.37674   -150.30735   -182995.89     812.0163   -182183.88    167137.16   0.80747713    0.2093831   0.22481547    0.4138919 
 4320000    301.57905     303.9561   -133.17864   -182994.62    810.89413   -182183.72    168539.14    0.8070735    0.2092135   0.22475008   0.41367902 
 4322000     304.5022    304.54216   -206.68072   -182996.24     812.4576   -182183.78    169064.67   0.80689295    0.2090528   0.22472979   0.41355851 
 4324000    307.30249     306.0601    65.265507   -183000.23    816.50719   -182183.72    168613.21   0.80749338   0.20899279   0.22457283   0.41368633 
 4326000     306.5736     304.3008   -48.286604   -182995.59    811.81372   -182183.77    167612.89   0.80775679   0.20914567   0.22478674    0.4138964 
 4328000    307.76088    306.35641   -266.83483   -183000.99    817.29768   -182183.69    166324.44    0.8083584   0.20913045   0.22474479   0.41407788 
 4330000    307.92084    308.23567    149.76623    -183006.2    822.31117   -182183.89    165265.91   0.80848641   0.20904716   0.22495195   0.41416184 
 4332000    307.79096     307.6697    73.272468   -183004.74    820.80127   -182183.94    165074.27   0.80829222   0.20900747   0.22474252   0.41401407 
 4334000    309.37755    307.19171   -17.582797   -183003.42    819.52608    -182183.9    165212.01   0.80788243   0.20917328   0.22518507   0.41408026 
 4336000    308.43296    307.79851    36.199995   -183004.98     821.1449   -182183.84    165338.58    0.8078354   0.21003793   0.22505353   0.41430896 
 4338000    308.64683     307.0349   -215.91994   -183003.06    819.10775   -182183.95    165659.41   0.80798179   0.20990516   0.22473843   0.41420846 
 4340000    309.43151    308.43948   -14.164101   -183006.81    822.85489   -182183.95    165353.44   0.80796795      0.20969    0.2247731   0.41414369 
 4342000     307.9615     306.2321   -119.40371   -183000.62    816.96605   -182183.65     165456.7    0.8084224   0.20961495   0.22511981   0.41438572 
 4344000    308.14245     308.0745   -155.11112   -183005.58    821.88119   -182183.69    165548.42   0.80881771   0.20953154   0.22515899   0.41450275 
 4346000    305.60332    306.09273   -80.571412   -183000.18    816.59424   -182183.59    165521.68   0.80864673   0.20956816   0.22536126   0.41452539 
 4348000    307.53663    308.02528   -59.866606   -183005.49    821.74989   -182183.74    165615.57   0.80863038   0.20950147   0.22561131   0.41458106 
 4350000    306.58757    306.72504   -49.293672   -183001.97     818.2811   -182183.69    166185.87   0.80861575    0.2093822   0.22560662   0.41453486 
 4352000    307.34762    307.34253   -193.33163   -183003.76    819.92844   -182183.83    166047.06    0.8094551    0.2093106   0.22600706   0.41492425 
 4354000    306.27334    306.32591   -6.8784488   -183001.07     817.2163   -182183.85    166056.84   0.80907952   0.20921723   0.22568203   0.41465959 
 4356000    305.89877    305.72525   -193.51538   -182999.37    815.61387   -182183.76    166175.02   0.80910782   0.20917091   0.22555635   0.41461169 
 4358000    308.29417    308.34679   -211.62779   -183006.24    822.60761   -182183.63    166388.61   0.80892977    0.2095858   0.22561081    0.4147088 
 4360000    307.38361    306.80179   -128.15197   -183002.18    818.48585    -182183.7    166440.67   0.80871386   0.20955557   0.22550453   0.41459132 
 4362000    306.90541    306.92474   -42.678259   -183002.58    818.81386   -182183.77    166562.56   0.80838566     0.209491   0.22536994   0.41441553 
 4364000    305.33986    305.97039    -40.87097   -183000.07    816.26786    -182183.8     166393.8   0.80828242   0.20938373   0.22527573   0.41431396 
 4366000    305.18676    305.07469   -18.023635   -182997.49    813.87829   -182183.61    166906.36   0.80809266   0.20940415   0.22523318   0.41424333 
 4368000    306.43899    307.38342      -157.72   -183003.83    820.03753   -182183.79    166904.24   0.80823783   0.20948872   0.22506003   0.41426219 
 4370000    304.27823    305.12199   -113.79318   -182997.71    814.00449    -182183.7    166679.46   0.80776425    0.2094053     0.225029   0.41406618 
 4372000    310.19108    308.04095   -71.218829   -183005.42    821.79168   -182183.63    166531.11   0.80735558   0.20931575   0.22489466   0.41385533 
 4374000    307.56374    307.11323   -51.518561   -183003.11    819.31672   -182183.79    166608.78   0.80727503   0.20928381   0.22498292   0.41384725 
 4376000    310.45465    308.20792    113.70145   -183005.91    822.23713   -182183.67    166687.08   0.80902178   0.20929711   0.22495893   0.41442594 
 4378000    310.46192    306.51803    -151.1686   -183001.36    817.72885   -182183.63    165994.71   0.81029382   0.20958373   0.22490543   0.41492766 
 4380000    305.90734    305.59595    6.0473551   -182998.99    815.26892   -182183.72     165416.7   0.81003234   0.20946072   0.22488837   0.41479381 
 4382000    308.18555    307.84704   -63.444459   -183004.88    821.27437   -182183.61    165097.48   0.80954619   0.20933213   0.22500822   0.41462885 
 4384000    309.58724    309.79559   -26.872061   -183010.06    826.47272   -182183.59    164979.53     0.809238   0.20926735   0.22506186    0.4145224 
 4386000    306.40487    307.35294   -239.27329   -183003.56    819.95622   -182183.61    165821.49    0.8090176   0.20947013   0.22501703   0.41450159 
 4388000    308.00354    309.02383    156.52974   -183008.03    824.41382   -182183.62    166587.46   0.80864973   0.20946412   0.22516889   0.41442758 
 4390000    306.41044    309.29766   -62.982871   -183008.86    825.14435   -182183.71    167275.37   0.80844212   0.20968046   0.22504959   0.41439073 
 4392000    308.32875    308.53056   -158.21925   -183006.66    823.09788   -182183.56    166991.97   0.80927056   0.20950932   0.22493028   0.41457005 
 4394000    310.18464    309.06208   -99.185891   -183008.12    824.51587   -182183.61    166488.68   0.80974799   0.20943184   0.22486714   0.41468232 
 4396000    304.59973    307.39292   -147.08969   -183003.62    820.06286   -182183.55    166115.04   0.81023679   0.20939561   0.22556139    0.4150646 
 4398000    308.09852    308.28984    132.40431   -183006.02    822.45567   -182183.56    166151.62   0.80990703   0.20949578   0.22628866   0.41523049 
 4400000    303.19436    304.54816    135.90988   -182996.03    812.47361   -182183.56    165813.78   0.80959705   0.20939693   0.22606968   0.41502122 
 4402000    309.61284    308.26722    5.5279545   -183005.83    822.39532   -182183.44    165701.71   0.80956416   0.20925301    0.2259144   0.41491052 
 4404000    306.14533    306.84047    36.061454   -183001.91    818.58905   -182183.33    165577.53   0.80918857   0.20916416     0.225753   0.41470191 
 4406000     307.7807    308.43189    109.89142   -183006.26    822.83464   -182183.43    165861.08   0.80892412   0.20921219    0.2255911    0.4145758 
 4408000    309.53521    307.28193   -167.01072   -183003.23    819.76676   -182183.46    166311.46   0.80865375    0.2092712   0.22543741   0.41445412 
 4410000    306.08471    308.02293    44.452483   -183005.28    821.74361   -182183.53    166266.23   0.80840529   0.20936415   0.22537318   0.41438087 
 4412000    310.33813    308.62092     27.40089   -183006.94    823.33894    -182183.6    165077.08   0.80783197   0.20961733   0.22525475   0.41423468 
 4414000    308.09292    308.21195   -173.93009   -183005.69    822.24789   -182183.44    164609.24   0.80737392   0.20979018   0.22538682   0.41418364 
 4416000    307.67548    307.20613   -69.049602    -183003.1    819.56456   -182183.53    164371.07   0.80706624   0.20986939   0.22564734   0.41419432 
 4418000    303.85377    304.37368   -346.38642    -182995.5    812.00814   -182183.49    164610.21   0.80670819   0.20973734   0.22546677   0.41397077 
 4420000    309.25254    308.94747    15.040091   -183007.76    824.21009   -182183.55    165170.74   0.80652687   0.20964694   0.22537575   0.41384985 
 4422000    305.94364    306.90165    118.59928   -183002.34    818.75227   -182183.59    165686.89   0.80763574   0.20952476   0.22591112   0.41435721 
 4424000    309.99477    307.45837    57.041728   -183003.74    820.23749    -182183.5    166567.03   0.80758361   0.20955118   0.22577953   0.41430477 
 4426000     305.9713    306.51568    -1.123753   -183001.16    817.72257   -182183.44    167642.23   0.80745621    0.2096159   0.22579977   0.41429063 
 4428000    305.00893    305.86294   -207.66286   -182999.27    815.98118   -182183.29    168880.83   0.80746558   0.20964666   0.22569037   0.41426754 
 4430000    305.44361     304.9368   -80.804231   -182996.82    813.51044   -182183.31    169527.38   0.80790843    0.2097163   0.22555736   0.41439403 
 4432000    304.98608    305.46351   -156.54073    -182998.1    814.91558   -182183.18    169014.48   0.80801512   0.20963433   0.22547579   0.41437508 
 4434000    306.77345    307.24573    78.669441   -183003.11     819.6702   -182183.44     167239.7   0.80825493   0.20954383   0.22550734   0.41443536 
 4436000    307.03361    308.67077    -39.60786   -183006.89    823.47193   -182183.42    165296.05   0.80849026   0.20950112   0.22557108   0.41452082 
 4438000     307.8788    308.94775   -125.53787   -183007.59    824.21085   -182183.38    164288.33   0.81022422   0.20953782   0.22575519   0.41517241 
 4440000    308.99204    308.52477    8.4729791    -183006.5    823.08242   -182183.42    164129.32   0.81052957   0.20947849   0.22574994   0.41525267 
 4442000    308.50481    308.98913   -235.48204   -183007.72    824.32125    -182183.4    164303.93   0.81043811   0.20937259   0.22593212   0.41524761 
 4444000    305.04436    307.84668    144.41748    -183004.6    821.27342   -182183.33    165419.72   0.81017316   0.20928605   0.22585658   0.41510526 
 4446000    305.98832     307.0216   -140.75955    -183002.3    819.07227   -182183.23    165929.29   0.81003198   0.20924377   0.22574238   0.41500604 
 4448000    310.64805    310.03626    141.88748   -183010.38    827.11477   -182183.27    166130.85   0.80968377   0.20919655    0.2257412   0.41487384 
 4450000    309.41355    308.43894   -338.95569   -183006.05    822.85346    -182183.2    166183.92   0.80934262   0.20919055   0.22560613    0.4147131 
 4452000    308.93881    306.84965    -31.91622   -183001.88    818.61355   -182183.27    166692.69   0.80901175   0.20909525    0.2256062   0.41457107 
 4454000    307.71298    306.70778   -220.66327   -183001.44    818.23505   -182183.21    167394.01   0.80885608   0.20905311   0.22565189   0.41452036 
 4456000     308.8942    306.80121    65.316903   -183001.65    818.48432   -182183.16    167832.15   0.80845252   0.20906612   0.22557381   0.41436415 
 4458000    307.54534    306.72146    66.216687   -183001.46    818.27155   -182183.19    168129.35   0.80824035   0.20899216   0.22550079   0.41424444 
 4460000     305.3665    307.11056    34.265625   -183002.42     819.3096   -182183.11    168450.92    0.8083173   0.20899216   0.22549902   0.41426949 
 4462000    304.71829    306.76942   -9.8518653    -183001.3    818.39951    -182182.9    168780.21   0.80834192    0.2087881   0.22538691   0.41417231 
 4464000    308.77316    308.11347    186.32567   -183005.12    821.98515   -182183.14     169036.2   0.80870837   0.20867708   0.22533838   0.41424128 
 4466000    306.98536    307.55606   -178.98278   -183003.42    820.49811   -182182.93     168573.4   0.80852319   0.20859146    0.2253477   0.41415412 
 4468000    305.59601    304.85028    9.9465977   -182996.16    813.27962   -182182.88    168402.47   0.80826793   0.20855736   0.22518006   0.41400178 
 4470000    303.95702     305.9975   -170.54523   -182999.38    816.34017   -182183.04    167771.46   0.80809699   0.20841082   0.22511505   0.41387429 
 4472000    305.57771    307.17535   -35.975151   -183002.44    819.48243   -182182.96    166763.89   0.80828404   0.20826054   0.22510429   0.41388296 
 4474000    309.27321    309.08317   -142.69032    -183007.6    824.57211   -182183.03    166246.63   0.80902221    0.2082301   0.22505565   0.41410265 
 4476000    306.32946    307.69372   -181.69517   -183003.83    820.86535   -182182.96    166254.79   0.80940914   0.20812792   0.22519675   0.41424461 
 4478000    302.72627     305.0378   -192.26889   -182996.57    813.77989   -182182.79    166197.64   0.80924011   0.20801268   0.22517035   0.41414105 
 4480000    305.46792    305.91536   -118.49863   -182999.22    816.12104    -182183.1    166168.14   0.80900736   0.20787898   0.22521734   0.41403456 
 4482000    305.24149    305.62538   -126.44414   -182998.34    815.34742   -182182.99    166095.18   0.80859208   0.20781977   0.22516567   0.41385917 
 4484000    306.28749    308.27863   -228.64858   -183005.46    822.42577   -182183.03    166480.15   0.80893125    0.2077202   0.22509451   0.41391532 
 4486000     307.0285    306.69704    20.519412   -183001.09    818.20641   -182182.89    167671.93   0.80914847   0.20764917   0.22498943   0.41392902 
 4488000    304.84628    306.41817    28.119359   -183000.43    817.46243   -182182.97    168095.17   0.80957027   0.20756525   0.22488193   0.41400582 
 4490000    303.95367    307.91216   -56.361955   -183004.31     821.4481   -182182.86    168202.75   0.80948934   0.20776809   0.22484836   0.41403526 
 4492000    302.79163    304.99871   -11.284943   -182996.45    813.67559   -182182.77     168142.5   0.80915652    0.2078712     0.224663    0.4138969 
 4494000    306.32092    307.99461   -221.68896   -183004.58    821.66807   -182182.91    167580.64   0.80876604   0.20777842   0.22460067   0.41371505 
 4496000    308.39505    307.84322   -79.345287   -183004.27    821.26419      -182183    166427.06   0.80845214   0.20775801   0.22454805   0.41358607 
 4498000    305.58303    305.32683     52.85673   -182997.38    814.55097   -182182.83    166043.09   0.80805939   0.20791436   0.22447127   0.41348167 
 4500000    310.67692    308.88366   -46.565465   -183006.98    824.03986   -182182.94     165823.9   0.80784659   0.20783956   0.22447161   0.41338592 
 4502000    306.39443     306.6075   -85.370942   -183001.05    817.96753   -182183.08    165958.51   0.80741919   0.20777975   0.22440531   0.41320142 
 4504000    308.73944    309.08206   -337.64882   -183007.58    824.56917   -182183.01    166120.27   0.80702389   0.20766561   0.22437462   0.41302137 
 4506000    306.11608    307.06749   -82.846467   -183002.16     819.1947   -182182.97    166598.89   0.80680531   0.20741144   0.22464323   0.41295333 
 4508000    308.27505    309.14417   -135.52314    -183007.7    824.73485   -182182.97    167014.86   0.80732966   0.20742896   0.22480649   0.41318837 
 4510000    304.92362    305.54433    104.86452   -182997.97    815.13121   -182182.84    166522.17   0.80774834   0.20736798   0.22490765   0.41334133 
 4512000    305.85483    306.86852    23.875468   -183001.68    818.66389   -182183.01    166146.35   0.80824573   0.20727963   0.22477977   0.41343504 
 4514000    309.34893    308.51969   -103.14911   -183006.01    823.06886   -182182.95    165836.78   0.80777079   0.20719445   0.22475888   0.41324137 
 4516000     305.1222    306.21781   -7.2524744   -182999.76    816.92792   -182182.83    165707.12   0.80764857   0.20754889   0.22466728   0.41328825 
 4518000    306.13744    307.97585   -160.99517   -183004.56      821.618   -182182.94    166070.58   0.80779242   0.20806159   0.22462736   0.41349379 
 4520000    311.46645     309.1832     27.88988   -183007.83    824.83897   -182182.99    166041.34   0.80780138   0.20805119   0.22471207   0.41352155 
 4522000    308.84209    308.00806   -209.37438   -183004.61    821.70395   -182182.91    166467.66   0.80745331   0.20802859   0.22464945   0.41337712 
 4524000    309.60434    310.89754   -154.68392   -183012.37    829.41249   -182182.96    166802.18   0.80717753   0.20844266   0.22451352    0.4133779 
 4526000    308.09305    307.80442   -18.290878   -183003.99    821.16067   -182182.83    167252.64   0.80713421   0.20845191   0.22442043   0.41333552 
 4528000    306.18352     307.2755   -245.32444   -183002.47    819.74962   -182182.72    167090.77   0.80698457   0.20835643   0.22435488   0.41323196 
 4530000    304.90727    306.19506    79.480218   -182999.71    816.86723   -182182.84    166760.59   0.80659405   0.20838598   0.22441425   0.41313143 
 4532000    306.37747    305.88503   -152.21776   -182998.83    816.04012   -182182.79     166095.6   0.80635179   0.20819341   0.22443686   0.41299402 
 4534000    308.08984    308.32736    -10.97837   -183005.29    822.55577   -182182.73    166201.25   0.80629698   0.20838486   0.22456978   0.41308387 
 4536000    304.76348    305.45995   -153.27986   -182997.69     814.9061   -182182.78    166421.61   0.80644222    0.2083025   0.22493505   0.41322659 
 4538000    302.85975    305.52671    -53.29796   -182997.68    815.08419   -182182.59    167262.12   0.80681182   0.20819218   0.22486708   0.41329036 
 4540000    302.75753    305.26645     126.6807   -182997.09    814.38987    -182182.7    167931.86   0.80685134   0.20819242   0.22482498   0.41328958 
 4542000    308.66848    307.42147    44.048413   -183002.86    820.13903   -182182.72    168376.82   0.80728227   0.20813101   0.22471488   0.41337606 
 4544000    307.14295    306.97989   -25.806777   -183001.68    818.96098   -182182.72    168135.09   0.80713367   0.20815673   0.22473234   0.41334091 
 4546000    306.97699    305.80154   -64.810485   -182998.43     815.8174   -182182.61     167456.6    0.8069202   0.20843345    0.2249775   0.41344372 
 4548000    306.44564    306.69837   -339.26972   -183000.85    818.20995   -182182.64    166785.74   0.80720115   0.20836582   0.22494228   0.41350309 
 4550000    305.28979    306.25015   -129.32227   -182999.82    817.01418   -182182.81    166691.86   0.80703435   0.20823373    0.2252073    0.4134918 
 4552000    306.21293    309.10785    36.840962   -183007.37    824.63797   -182182.73    166603.16    0.8068685   0.20804997    0.2251262   0.41334822 
 4554000    307.35302    307.35146   -279.11713   -183002.73    819.95227   -182182.78    166386.23   0.80678561   0.20794695   0.22519785   0.41331014 
 4556000    304.67862    305.66406    -180.4039   -182998.14    815.45062   -182182.68    165876.01   0.80663671   0.20798898   0.22509678   0.41324082 
 4558000    304.34624    307.09515   -225.34329   -183001.92    819.26849   -182182.65     165930.6   0.80720233   0.20790714   0.22497397   0.41336115 
 4560000    307.46089    308.23926    122.84884   -183004.93    822.32073   -182182.61    166073.24    0.8068806   0.20796101   0.22484748    0.4132297 
 4562000    304.58877    307.26468    196.04524   -183002.51    819.72075   -182182.79    166171.49   0.80654062    0.2080501   0.22471851   0.41310308 
 4564000    305.20583    306.92273   -61.972347    -183001.5    818.80851   -182182.69    166118.48   0.80648474   0.20793063   0.22459278   0.41300272 
 4566000    305.97558    307.26019    54.074141   -183002.21    819.70878    -182182.5    166286.43   0.80619699   0.20788498   0.22450908   0.41286368 
 4568000    306.81411    308.24958   -100.95913   -183005.01    822.34827   -182182.66    166315.45   0.80595312   0.20780499   0.22440902   0.41272238 
 4570000    305.11636    306.06062   -121.52128   -182999.01    816.50855   -182182.51    166073.29   0.80597876    0.2077908   0.22453557   0.41276838 
 4572000    306.94411    307.30738   -250.35847   -183002.19    819.83468   -182182.36    166148.93   0.80590834   0.20757024   0.22443247   0.41263702 
 4574000    305.50498    307.57028   -14.498913      -183003    820.53602   -182182.46     165836.2   0.80580409   0.20744542   0.22437089   0.41254013 
 4576000    304.05019    306.38477   -50.534466   -182999.94    817.37333   -182182.56    165380.78   0.80556353   0.20775936   0.22430002   0.41254097 
 4578000    303.71724     306.6743     39.96284   -183000.63    818.14573   -182182.49    165567.29   0.80626697   0.20777702   0.22438703   0.41281034 
 4580000    301.38104    304.10159    -241.6097   -182993.68    811.28225    -182182.4    165782.81   0.80732566   0.20799367   0.22462744   0.41331559 
 4582000    305.69121    309.43052      75.1919   -183007.96    825.49878   -182182.46    165887.21   0.80741373   0.20788606   0.22463212   0.41331064 
 4584000    308.22586    310.38531    -109.2368   -183010.52    828.04596   -182182.48     165781.8   0.80717891   0.20805973   0.22486011   0.41336625 
 4586000    309.03114     306.4816   -111.43229   -183000.16    817.63165   -182182.52    165698.67   0.80696069   0.20900853   0.22481713   0.41359545 
 4588000    305.92616    307.14912   -73.446349   -183001.81    819.41247   -182182.39     165942.7   0.80673392   0.20970064   0.22481159   0.41374871 
 4590000    307.40845    309.01891    39.604585   -183006.74    824.40068   -182182.34    166000.86   0.80694768   0.21003825     0.224809   0.41393164 
 4592000    305.53309    307.67807   -187.49666   -183003.36    820.82361   -182182.53    165883.47   0.80707263   0.20992031   0.22473788   0.41391027 
 4594000    308.54209    308.21843   -117.87666   -183004.75    822.26516   -182182.48    165459.79   0.80765889   0.20995511   0.22486474   0.41415958 
 4596000    308.76816     310.2013   -10.298185   -183010.17    827.55507   -182182.62    165172.97   0.80760453   0.20997188   0.22485403   0.41414348 
 4598000    307.83677     308.3932   -117.86774   -183005.22    822.73142   -182182.49    164709.15   0.80767124   0.20997087   0.22499208   0.41421139 
 4600000     307.1725    307.02925    3.7297806   -183001.48    819.09268   -182182.39    164575.55   0.80848221   0.20985471   0.22472266   0.41435319 
 4602000    309.08509    309.17269   -143.21033   -183007.28    824.81095   -182182.47    164823.78   0.80829643   0.20983232   0.22481097   0.41431324 
 4604000    310.11114    308.52679    149.74277   -183005.34    823.08782   -182182.26     165424.5   0.80868651   0.20973895    0.2246532   0.41435955 
 4606000    304.68049    306.33589   -193.07481   -182999.42    817.24292   -182182.18    165938.91   0.80883304   0.20965916   0.22465165   0.41438129 
 4608000    305.59675    306.40696   -5.2150383   -182999.66    817.43254   -182182.23     165442.1   0.80898002   0.20952147   0.22473364   0.41441171 
 4610000    306.95806    307.56927   -184.32446   -183002.79    820.53334   -182182.25     164729.3   0.80861378     0.209865   0.22461551   0.41436476 
 4612000    307.25145    309.14054    54.672406   -183006.98    824.72516   -182182.25    163950.42   0.80848623   0.20989717   0.22461807   0.41433383 
 4614000    307.23393    309.08632    50.254592   -183006.89    824.58054   -182182.31     163692.3    0.8081062   0.20991137   0.22479437   0.41427065 
 4616000    310.80141    311.47658    284.23027   -183013.18    830.95725   -182182.22    163607.78   0.80777124   0.20977982   0.22499632   0.41418246 
 4618000    305.81409    306.35886    -29.98551   -182999.41    817.30421    -182182.1     163552.2   0.80748826   0.20988149   0.22479094   0.41405356 
 4620000    308.17586    309.53605   -71.454673   -183008.11     825.7803   -182182.33    164144.59   0.80770087    0.2098752   0.22488234    0.4141528 
 4622000    305.97501    306.91755   -56.980161   -183000.92    818.79469   -182182.12    165031.55   0.80756229   0.20987685   0.22500991   0.41414968 
 4624000    304.36486    306.68652    32.033611   -183000.23    818.17834   -182182.05    165674.79   0.80778237   0.20967688   0.22545875     0.414306 
 4626000    302.46743    305.30973   -114.50822    -182996.6    814.50534   -182182.09    166376.32   0.80771951   0.20958524   0.22552394   0.41427623 
 4628000    306.32699    307.83537    34.076797   -183003.41    821.24325   -182182.17    166801.26   0.80759955   0.20953777   0.22566664   0.41426799 
 4630000    306.50368    308.89316   -64.628725   -183006.07     824.0652      -182182    166071.95   0.80729806   0.20941178   0.22561445   0.41410809 
 4632000    304.68522     305.3715    -120.3536   -182996.59    814.67013   -182181.92    165218.21    0.8072942   0.20936692   0.22558656   0.41408256 
 4634000    307.73322    308.13851     41.94591   -183004.09    822.05195   -182182.04     164744.2   0.80699183   0.20932441   0.22581941   0.41404522 
 4636000    308.85483      308.404   -88.725805   -183004.87    822.76023   -182182.11    164851.66   0.80669411   0.20990099   0.22576002   0.41411837 
 4638000    307.46857    307.94041    87.147252   -183003.62    821.52346   -182182.09    164957.59   0.80637396   0.20988665   0.22567832   0.41397964 
 4640000    306.58721    306.85783    1.2226668   -183000.65    818.63536   -182182.02     165481.4   0.80602563   0.20991544   0.22561653   0.41385253 
 4642000    306.41396    306.25255    95.375703   -182998.92    817.02058    -182181.9    165657.27   0.80566445   0.21045067   0.22549991   0.41387168 
 4644000    308.20013    308.67299   -108.95577    -183005.6    823.47784   -182182.12    165710.16   0.80532664   0.21089799    0.2254378   0.41388747 
 4646000    309.05373    306.51388   -80.894062   -182999.74    817.71778   -182182.02       165642   0.80521813   0.21073521   0.22539867     0.413784 
 4648000    308.91683    307.37683   -247.58107   -183002.06    820.01995   -182182.04    166127.17   0.80492749   0.21067152   0.22549929   0.41369943 
 4650000    307.11982     308.2753    4.2556729   -183004.52    822.41689    -182182.1    166852.73   0.80472277   0.21049606   0.22553087   0.41358323 
 4652000    307.58246    306.40929   -126.84502   -182999.37    817.43875   -182181.93    168098.02   0.80449442   0.21071659   0.22529437   0.41350179 
 4654000    307.01201    306.74714   -203.70545    -183000.2    818.34006   -182181.86    170135.76   0.80450715   0.21075749   0.22527533   0.41351332 
 4656000     307.9656    307.76129    13.998597   -183002.84    821.04562   -182181.79    171205.19    0.8042522   0.21115684   0.22513858   0.41351587 
 4658000    304.70352     305.5151   -411.84662   -182996.82    815.05323   -182181.77    171345.01   0.80418363   0.21105428   0.22500155   0.41341315 
 4660000     307.5999    306.75745   -100.14664   -183000.19    818.36757   -182181.82    170568.37   0.80447632   0.21118035   0.22505825   0.41357164 
 4662000    305.91799    306.30434    48.342301   -182999.02    817.15875   -182181.86    168956.01   0.80388423   0.21114309   0.22496516   0.41333083 
 4664000    306.46406    307.38586   -100.22499   -183001.97    820.04404   -182181.92     166774.9   0.80451617   0.21114623   0.22498456   0.41354899 
 4666000    306.89774     306.0442    -17.83577   -182998.51    816.46476   -182182.05    165516.28   0.80441836   0.21150032   0.22499452   0.41363774 
 4668000    309.78595    308.67436   -31.696158   -183005.59     823.4815   -182182.11    165534.25   0.80417902   0.21133782   0.22497732   0.41349806 
 4670000    309.21999    309.07886   -21.235368   -183006.52    824.56061   -182181.96     167062.6   0.80379947   0.21138664   0.22514848   0.41344487 
 4672000    305.53097    306.56446   -236.59453   -182999.81     817.8527   -182181.95    169030.41   0.80345289   0.21139309   0.22533322   0.41339307 
 4674000     306.0239    306.75298    12.953756    -183000.4    818.35565   -182182.05    170249.95   0.80311101   0.21128884   0.22525301   0.41321762 
 4676000    303.43686     306.6995   -8.9922085    -183000.1    818.21297   -182181.89    170557.67   0.80285773   0.21147231   0.22519163   0.41317389 
 4678000    306.60251    308.11803    59.092811   -183003.86    821.99731   -182181.87    169585.89   0.80267378   0.21137901   0.22540789   0.41315356 
 4680000    308.23788    308.27182   -233.99154   -183004.46     822.4076   -182182.05    167623.78   0.80250713   0.21128887   0.22559088   0.41312896 
 4682000    310.51859    308.97622    59.458904   -183006.31    824.28679   -182182.02    165739.59   0.80217722   0.21128245   0.22544181   0.41296716 
 4684000    310.43152    309.88719   -160.51364   -183008.88    826.71709   -182182.17    164651.73   0.80183856   0.21117818    0.2255443   0.41285368 
 4686000    313.18777    310.75662   -34.195869   -183011.19    829.03656   -182182.16    164702.56   0.80150468   0.21104143   0.22543586   0.41266066 
 4688000    308.51141    307.90241   -189.02523   -183003.51    821.42209   -182182.08    165049.12   0.80117297   0.21111798   0.22534068   0.41254387 
 4690000    305.81753    306.45123   -54.336972   -182999.55    817.55064      -182182    166012.08   0.80138937   0.21115666    0.2252678   0.41260461 
 4692000    306.76602    308.01221   -151.10951   -183003.81    821.71502    -182182.1    166831.85     0.801037   0.21135917   0.22519412    0.4125301 
 4694000    307.14669    305.93912   -14.307509   -182998.24    816.18444   -182182.05    167360.46   0.80079445   0.21128928   0.22506557    0.4123831 
 4696000     308.1183     306.6452   -258.12548   -183000.07     818.0681      -182182    166825.85   0.80156573   0.21115087   0.22508903   0.41260188 
 4698000    308.85478    307.94036    93.709648   -183003.55    821.52332   -182182.03    166477.99   0.80172634   0.21106889   0.22494199   0.41257907 
 4700000    307.23636    308.21312   -186.14802   -183004.39      822.251   -182182.14    166149.28   0.80162941    0.2108675   0.22502191   0.41250627 
 4702000    306.38343     307.2293    71.813521   -183001.58    819.62636   -182181.96     165786.2   0.80167924   0.21106844   0.22495215   0.41256661 
 4704000    307.39643     307.6245    11.813087   -183002.75    820.68069   -182182.07    165813.29   0.80122092   0.21097135   0.22485342   0.41234856 
 4706000    307.15571    307.12132    -59.60345   -183001.25    819.33829   -182181.91    165782.29   0.80100627   0.21087368    0.2249815   0.41228715 
 4708000    309.72029    309.92568   -147.86215   -183008.85    826.81977   -182182.03    165602.72   0.80059977   0.21086463   0.22500348   0.41215596 
 4710000    305.93428    306.55952    -47.40694   -182999.81    817.83953   -182181.97    165085.43   0.80029018   0.21098817    0.2248122   0.41203018 
 4712000    308.00481     306.6806    109.17466   -183000.09    818.16254   -182181.93    164743.59   0.80002044   0.21102868   0.22487346   0.41197419 
 4714000    310.18891    310.10729   -128.83772   -183009.34    827.30426   -182182.04    164796.68   0.79969993   0.21090826   0.22500996   0.41187272 
 4716000     309.7459     310.0574    23.891603    -183009.1    827.17116   -182181.93    165115.12   0.79979053   0.21081739   0.22500035   0.41186942 
 4718000    310.14009     309.4258    125.34578   -183007.39    825.48618    -182181.9    165627.66   0.79977814   0.21079447   0.22497986   0.41185083 
 4720000     306.8399    306.03466   -83.456127   -182998.41    816.43929   -182181.97    166239.99   0.79972967   0.21067533   0.22498518   0.41179673 
 4722000     308.4567    307.98582   -172.99197   -183003.54    821.64462   -182181.89    166874.08   0.79943408   0.21057599   0.22479316   0.41160108 
 4724000    308.49158    305.60359    99.100444   -182997.23    815.28929   -182181.94    166940.28   0.79992306   0.21044211   0.22496027   0.41177515 
 4726000    307.43993    307.13808   -252.50591   -183001.12      819.383   -182181.74    166669.74   0.79968843   0.21041865   0.22497732    0.4116948 
 4728000    307.91732    306.89971   -210.26823   -183000.56    818.74708   -182181.81    166870.07   0.79944429   0.21038758   0.22487302   0.41156829 
 4730000    307.31133    306.19096     110.3162   -182998.57    816.85629   -182181.72    167771.82   0.79973176   0.21038603   0.22475839   0.41162539 
 4732000    307.69408    306.44035   -299.84073    -182999.2    817.52159   -182181.68     168702.4   0.80007266   0.21030913   0.22460966   0.41166382 
 4734000    307.06885    305.87186    20.678735   -182997.61      816.005    -182181.6    168939.59   0.80046798   0.21024579   0.22455646   0.41175675 
 4736000    305.22347    304.73229   -116.62942    -182994.6    812.96484   -182181.63    168611.26   0.80029323   0.21014903   0.22448548   0.41164258 
 4738000    306.77222    305.89509   -75.671922   -182997.67    816.06696    -182181.6    167997.57   0.80039166   0.21012506   0.22445983   0.41165885 
 4740000    308.34155    307.10072    124.32189   -183000.98    819.28334   -182181.69    167898.42   0.80173353   0.21004885   0.22448936   0.41209058 
 4742000    309.18601    306.27095   -26.883127   -182998.76    817.06969   -182181.69    167825.31   0.80231801   0.20987156    0.2243451   0.41217822 
 4744000    306.99881    306.17665    16.056586   -182998.34     816.8181   -182181.52    167676.14   0.80238087   0.20971646   0.22435291   0.41215008 
 4746000     308.3863    307.91312   -9.9390096   -183003.17    821.45066   -182181.72    167289.43   0.80250332   0.20968772   0.22453441   0.41224182 
 4748000    311.46887    309.19319    -134.2689   -183006.52    824.86563   -182181.65    166813.07   0.80259163    0.2095275    0.2245113   0.41221014 
 4750000     306.9018    306.95518    32.937122   -183000.55    818.89507   -182181.65    166537.63   0.80293104   0.20940883   0.22442882   0.41225623 
 4752000    307.60746    309.56073    36.754413   -183007.59    825.84614   -182181.75    166030.46   0.80289611   0.20959041   0.22435531   0.41228061 
 4754000    309.19819    307.33414   -151.92446   -183001.59    819.90605   -182181.69    165063.99   0.80304986   0.20944539    0.2243759   0.41229038 
 4756000    307.23372    306.85144   0.99016192   -183000.33    818.61831   -182181.72    164741.52   0.80299771   0.20932918   0.22484394   0.41239028 
 4758000    307.62215    308.01182   -210.36399   -183003.58    821.71397   -182181.86    163750.95      0.80273   0.20923458   0.22519377   0.41238612 
 4760000    306.24433    306.21581   -249.10723   -182998.76    816.92258   -182181.84    163553.44    0.8023677   0.20923699   0.22564988   0.41241819 
 4762000    306.04543    307.34783   -218.88701    -183001.6    819.94257   -182181.65    164543.22   0.80211652   0.20915247   0.22578327   0.41235076 
 4764000    307.37119    307.85352   -337.28472   -183002.99    821.29165   -182181.69    166114.52   0.80176051   0.20911383   0.22583594   0.41223676 
 4766000    305.76625    307.63487   -162.57028   -183002.22    820.70834   -182181.51    167344.95   0.80160746   0.20907114   0.22586893   0.41218251 
 4768000    307.07654     306.9915   -84.115224   -183000.61    818.99197   -182181.62    167344.11   0.80181223   0.20940757   0.22579278   0.41233753 
 4770000    302.56811    305.48859   -176.73784   -182996.47    814.98249   -182181.49     166803.6   0.80270402   0.20994819   0.22575921   0.41280381 
 4772000    304.33214    306.02027   -167.40162   -182997.84    816.40092   -182181.44    166299.08   0.80227967    0.2099277   0.22567863   0.41262867 
 4774000    306.50924    308.57455    63.416623   -183004.81    823.21522    -182181.6    165702.95     0.802131   0.20985106    0.2255214   0.41250115 
 4776000    303.62401    305.47527   -2.9432377    -182996.4    814.94696   -182181.45    165529.42   0.80216414   0.21010465   0.22546345   0.41257741 
 4778000    305.97521    307.39743    68.604815   -183001.63    820.07491   -182181.56    166126.73   0.80170134   0.20993676   0.22533444   0.41232418 
 4780000    304.41576    306.52884    50.404199   -182999.14    817.75767   -182181.39    166413.01    0.8014006   0.21000547   0.22537922   0.41226176 
 4782000    306.55439     308.3702   -136.76643   -183004.22    822.67007   -182181.55    166727.53   0.80106181   0.21004601   0.22553464   0.41221415 
 4784000    301.41585    305.32628    -279.8364   -182995.88    814.54948   -182181.33    166864.83   0.80066105   0.21001905   0.22575214   0.41214408 
 4786000    305.89071    307.44765    158.05013   -183001.76    820.20888   -182181.55     166995.1   0.80057496   0.20999013   0.22571006   0.41209171 
 4788000    303.21131    305.64895   -30.353553    -182996.9     815.4103   -182181.49    166311.54   0.80048307   0.21026968   0.22613978   0.41229751 
 4790000    304.46197     307.4694   -39.188899   -183001.74     820.2669   -182181.48    166216.96   0.80012668   0.21010396   0.22633147   0.41218737 
 4792000    304.62422    308.23822    82.818925   -183003.76    822.31795   -182181.44    165814.19   0.79995239   0.20995033   0.22645879    0.4121205 
 4794000    305.80621    306.71488    84.489918   -182999.68      818.254   -182181.43    165735.99   0.79949181   0.20982893   0.22635334   0.41189136 
 4796000    306.50399    309.03279   -204.60732   -183005.89    824.43771   -182181.45    165685.97     0.799127   0.21008967   0.22630495   0.41184054 
 4798000    305.83298    307.78865     74.25251   -183002.54    821.11861   -182181.42    165963.99   0.79922563   0.20995948   0.22616466   0.41178326 
 4800000    303.88068      307.314   -178.32347   -183001.31    819.85233   -182181.46     166840.6   0.79877469   0.20982368   0.22613691   0.41157843 
 4802000    303.69098    305.66575   -51.030757   -182996.79    815.45512   -182181.34    167537.54   0.79907315   0.20980068    0.2264244   0.41176608 
 4804000    306.80427    308.74257    85.692248   -183005.05    823.66348   -182181.38    167430.64   0.79900641   0.20969972   0.22677853   0.41182822 
 4806000    302.92617    306.27511   -36.354641   -182998.35    817.08079   -182181.27    166831.53    0.7988577   0.20959581   0.22666163   0.41170505 
 4808000    306.21874    307.48611   -166.53924   -183001.67    820.31148   -182181.36    166318.59   0.79989027   0.20956111   0.22654672   0.41199937 
 4810000     306.8436    308.36617    67.121749   -183004.03     822.6593   -182181.37    166292.01   0.79994092   0.20942432    0.2265328   0.41196601 
 4812000    306.22367    309.42819   -199.31448   -183006.95    825.49256   -182181.46    166398.61   0.80023437   0.20932955   0.22653187   0.41203193 
 4814000    304.36529    305.77259    -23.82688    -182997.1    815.74015   -182181.36     167155.2   0.80011687   0.20922416   0.22648336   0.41194146 
 4816000    305.21228    305.86811    -82.66173   -182997.39    815.99499   -182181.39    167399.07   0.79976048   0.20934324   0.22626229   0.41178867 
 4818000     306.1479    307.02349   -84.237243   -183000.65    819.07731   -182181.57    166785.71   0.79971113   0.20945737   0.22621234   0.41179361 
 4820000    303.89443    306.04366    -334.8225   -182997.77    816.46332   -182181.31    166511.16    0.8003712   0.20941129   0.22606576   0.41194942 
 4822000    307.00678    308.17437   -140.19278   -183003.66    822.14763   -182181.51    165992.83   0.80013857   0.20944155    0.2261414   0.41190717 
 4824000    303.77761    308.26609    78.314039   -183003.79    822.39233    -182181.4    165683.64   0.80019555    0.2094818   0.22595245    0.4118766 
 4826000    307.05421    306.58821   -66.282537    -182999.2    817.91607   -182181.28    165790.01   0.79996603   0.20941413   0.22595272   0.41177763 
 4828000     301.9383    305.75302   -122.60647   -182997.04    815.68795   -182181.35    166449.09   0.79965883   0.20954744   0.22582093   0.41167573 
 4830000    306.06981    308.25622   -176.12831   -183003.75    822.36599   -182181.39    166666.02   0.79942122   0.20940935   0.22593133    0.4115873 
 4832000    305.05564     306.4424   -190.09221   -182998.84    817.52709   -182181.32    166903.36   0.79950491   0.20931832   0.22583276     0.411552 
 4834000     304.9881    308.11403   -180.03485   -183003.45    821.98664   -182181.47    166629.37    0.7992781   0.20932365    0.2258631   0.41148828 
 4836000    303.69849    306.33875    196.78175   -182998.57    817.25056   -182181.32    165791.36   0.79909545   0.20934729   0.22560745   0.41135006 
 4838000    306.27711    306.81229   -14.449338   -182999.81    818.51386    -182181.3    165769.06   0.79897357   0.20925057   0.22594945    0.4113912 
 4840000    308.55341    309.75165   -181.68393   -183007.83     826.3555   -182181.47    165682.09   0.79862401   0.20943282   0.22591612   0.41132431 
 4842000    305.33751    307.91703   -178.53219   -183002.83    821.46109   -182181.37     165628.1   0.79834245   0.20934396   0.22597035   0.41121892 
 4844000    306.31729    307.06003   -64.334871   -183000.34    819.17479   -182181.17     165675.2   0.79804786   0.20928491   0.22584846   0.41106041 
 4846000    308.37533    308.82612   -60.515729   -183005.22    823.88635   -182181.34    166046.25   0.79784628   0.20906756   0.22647003   0.41112796 
 4848000    307.65822    307.37711   -180.93267   -183001.11    820.02068   -182181.09    166658.19   0.79775502   0.20903644   0.22651549   0.41110232 
 4850000    306.28375    308.08214   -250.52078   -183003.21    821.90158   -182181.31    167527.69    0.7975234   0.20899851   0.22643307   0.41098499 
 4852000    307.89993    307.81399    121.31778   -183002.28     821.1862    -182181.1    168329.28   0.79726558   0.20892361   0.22646462    0.4108846 
 4854000    307.32562    307.58143   -160.85276   -183001.71    820.56578   -182181.15    168940.14   0.79725315   0.20886065   0.22641811   0.41084397 
 4856000    304.23741    305.87929   -22.047427   -182997.09    816.02482   -182181.07    168550.21    0.7969402   0.20871091   0.22664858   0.41076656 
 4858000    305.81511    307.22567   -275.02178   -183000.83    819.61668   -182181.21    167409.33   0.79661184   0.20870559   0.22663882   0.41065208 
 4860000    309.49143     310.3856   -194.92021   -183009.28    828.04675   -182181.23    166213.09    0.7962759    0.2086706   0.22695023   0.41063224 
 4862000    308.42773    308.72618   -79.308139   -183004.75    823.61975   -182181.13    166051.96    0.7963076   0.20861849   0.22707216   0.41066608 
 4864000    306.12229    305.24949   -24.945539   -182995.62    814.34463   -182181.27    166169.98   0.79681988   0.20856586   0.22700282   0.41079619 
 4866000    303.56249    304.61605   -137.03962   -182993.91    812.65473   -182181.25    165749.89    0.7977183   0.20850287   0.22713214   0.41111777 
 4868000    308.12056    308.27497   -42.500868   -183003.58      822.416   -182181.16    165143.42   0.79842575     0.208404   0.22727371   0.41136782 
 4870000    307.04719    306.39153   -76.841773   -182998.38    817.39136   -182180.99    165562.09   0.79825209    0.2085705   0.22709732   0.41130664 
 4872000    303.42276    306.61907    36.569486   -182998.95     817.9984   -182180.95    166220.23   0.79787364   0.20839026   0.22700769   0.41109053 
 4874000    306.46656    306.73776   -157.06624   -182999.39    818.31505   -182181.07    166812.44   0.79762682   0.20844093   0.22691969   0.41099582 
 4876000    305.32955    307.81068    43.689434   -183002.08    821.17736    -182180.9    167140.44   0.79821536   0.20855882   0.22686386   0.41121268 
 4878000    307.92971    307.87405   -249.28429   -183002.42    821.34642   -182181.07    166434.92   0.79959736   0.20837577   0.22676771   0.41158028 
 4880000    306.51272    307.01052    122.76377   -183000.21     819.0427   -182181.17    166334.69   0.80164266   0.20822464   0.22687566   0.41224765 
 4882000    307.34193     306.6698   -141.35231    -182999.1    818.13373   -182180.97    166631.87   0.80206291   0.20821412    0.2268404   0.41237248 
 4884000    308.62499    307.31497    66.489444   -183000.72    819.85491   -182180.86    166699.55   0.80162445   0.20817156   0.22678503   0.41219368 
 4886000    309.50707    309.00374   -161.52816    -183005.4    824.36022   -182181.04    167341.26   0.80158496   0.20809333   0.22676529   0.41214786 
 4888000    307.26007    307.98144    -58.80366    -183002.6    821.63293   -182180.96    167604.45   0.80146752   0.20807353   0.22676882   0.41210329 
 4890000    306.97775    308.09081   -247.19301   -183002.75    821.92469   -182180.82    166946.41   0.80131232   0.20813912   0.22667632   0.41204259 
 4892000    305.80814    306.54297    142.75831   -182998.66    817.79537   -182180.87     166067.6   0.80129418   0.20812709   0.22697952    0.4121336 
 4894000    306.43264    308.12323   -70.438581   -183002.96     822.0112   -182180.95     165225.8   0.80182199   0.20803183   0.22713515   0.41232966 
 4896000    309.30237    309.31102   -65.961747   -183005.94    825.17999   -182180.76    164161.62   0.80195297   0.20800193   0.22721444   0.41238978 
 4898000    309.19181    309.79374   -279.72698   -183007.57    826.46779   -182181.11    163153.66   0.80256126   0.20803029   0.22762006    0.4127372 
 4900000    309.53539    309.47465   -23.858516   -183006.55     825.6165   -182180.94    162705.83   0.80410907   0.20783602   0.22752746   0.41315752 
 4902000    304.14429    307.95291    37.884413   -183002.46     821.5568   -182180.91    163475.03   0.80543094   0.20785953   0.22758236   0.41362428 
 4904000    306.14911    308.16766    8.2917971   -183002.96    822.12973   -182180.83    164552.47      0.80578   0.20785028   0.22818396   0.41393808 
 4906000    308.46226    307.79613   -198.67088   -183001.91    821.13854   -182180.77    165368.56   0.80589499    0.2077595   0.22799375   0.41388275 
 4908000    302.37426    305.95522    6.1437663   -182997.09    816.22739   -182180.86    165798.56   0.80590677   0.20773371    0.2279021   0.41384753 
 4910000    305.91117    309.24112    317.25099   -183005.93     824.9935   -182180.94    165154.58   0.80550107   0.20766341   0.22788357   0.41368268 
 4912000     306.2825    308.92084    -120.8316   -183004.95    824.13906   -182180.81    164931.82   0.80584746    0.2079859   0.22823273   0.41402203 
 4914000    306.83007    308.36216   -204.26875   -183003.52     822.6486   -182180.87    165044.59    0.8067298   0.20791558   0.22806258   0.41423599 
 4916000    306.37089     308.4131    54.912334   -183003.68    822.78451    -182180.9    165536.57   0.80647195   0.20899832   0.22795942   0.41447657 
 4918000    305.00686    306.41658   -94.316913   -182998.13     817.4582   -182180.67    166441.88   0.80627465   0.20892162    0.2280816   0.41442596 
 4920000    303.94849    307.50526   -73.503757   -183001.05    820.36258   -182180.69    167494.16   0.80624737   0.20887299   0.22804594   0.41438877 
 4922000    305.81246    308.30958   -12.524199   -183003.26    822.50833   -182180.75    168324.12   0.80660635   0.20980477   0.22800422   0.41480511 
 4924000    304.20971    305.24849   -98.547362   -182995.16    814.34196   -182180.82    168121.45   0.80755574   0.20965047   0.22807054   0.41509225 
 4926000    304.54656    307.46616   -111.51071   -183000.83    820.25827   -182180.58    167769.83   0.80725646   0.20972305   0.22800866   0.41499606 
 4928000    305.22241    307.00289    78.032277   -182999.69    819.02235   -182180.66    167112.92   0.80774919   0.20966462    0.2279141    0.4151093 
 4930000    307.10735    306.74536   -121.38246   -182999.19     818.3353   -182180.86    165896.74   0.80778752    0.2095235   0.22780324   0.41503809 
 4932000    309.50844    307.64143   -174.58495   -183001.51    820.72586   -182180.78    165474.46   0.80801508   0.20947416   0.22769972   0.41506299 
 4934000    309.79585    309.60755   -167.90775   -183006.76    825.97106   -182180.79    165199.27   0.80844881   0.20966454    0.2275228   0.41521205 
 4936000    306.84372    306.63075   -49.679551   -182998.69    818.02956   -182180.66    165812.14   0.80909097   0.20952472   0.22746189   0.41535919 
 4938000    307.32591    307.04897    25.152866    -182999.9    819.14528   -182180.75     166617.2   0.80877759   0.20971883   0.22773854   0.41541165 
 4940000    305.81611    305.98142   -162.48282   -182997.06    816.29727   -182180.76    167045.69    0.8084645   0.21000864   0.22774749   0.41540688 
 4942000    307.76243    308.33317   -56.436124    -183003.2    822.57127   -182180.63    166656.12   0.80869881   0.20994176   0.22764491    0.4154285 
 4944000    308.03588    309.14476   -87.038943   -183005.45    824.73643   -182180.71    165620.15   0.80881529   0.20983183   0.22767063   0.41543925 
 4946000    308.56705      309.054   -143.05109   -183005.35     824.4943   -182180.86    165050.41   0.80854014   0.20999884    0.2275962   0.41537839 
 4948000    307.48044    308.87732   -202.69654   -183004.69    824.02295   -182180.67    165048.82   0.80846244   0.20986271   0.22749176    0.4152723 
 4950000    308.44165    308.23595   -93.342418   -183003.02    822.31191   -182180.71    164854.38   0.80856186   0.20985211   0.22781181   0.41540859 
 4952000    306.89597    307.35949   -93.745019   -183000.79    819.97369   -182180.82    165297.38   0.80874111   0.20981424   0.22782729   0.41546088 
 4954000    306.01127     307.4902    31.280421   -183000.98    820.32239   -182180.66    166286.27   0.80845575    0.2097674   0.22773508   0.41531941 
 4956000    307.82139    308.88958   -180.76354   -183004.77    824.05565   -182180.72    166431.75   0.80870255   0.20971822   0.22762394   0.41534824 
 4958000    308.15224    309.45756   -67.071841   -183006.36    825.57092   -182180.79    166039.22   0.80827798   0.21004163   0.22752698    0.4152822 
 4960000    309.13681    308.51673     53.80876   -183003.73    823.06099   -182180.67    165611.85   0.80786093   0.21053352   0.22754567   0.41531337 
 4962000    310.18642    309.48481   -18.872166   -183006.37    825.64362   -182180.73     165421.7   0.80805601   0.21051484    0.2274441   0.41533832 
 4964000    306.96271    306.39204   -146.30476   -182998.22    817.39273   -182180.83    165630.79   0.80815546   0.21055751   0.22744216   0.41538504 
 4966000    307.80616    306.27644    120.70985    -182997.9    817.08433   -182180.82    166185.89   0.80760383   0.21054354   0.22738301   0.41517679 
 4968000    308.62794    308.49042   -159.02983   -183003.83    822.99078   -182180.84    166708.57    0.8074334   0.21047703   0.22727866   0.41506303 
 4970000    306.79091    307.59959   -295.03802   -183001.35    820.61422   -182180.74    167011.34   0.80869998   0.21048819   0.22722479   0.41547098 
 4972000    306.26026     306.2364   -208.64913   -182997.57    816.97752   -182180.59     166743.3   0.80996438   0.21105358    0.2271791   0.41606569 
 4974000    306.86997    307.85103    72.263547   -183002.02    821.28502   -182180.73    166643.74   0.80986405   0.21075685   0.22720734   0.41594274 
 4976000    307.94079    308.63012    52.646245   -183004.15    823.36347   -182180.79    166623.22   0.80973954   0.21065475   0.22770555   0.41603328 
 4978000    307.34512    306.08559     47.27743   -182997.33    816.57518   -182180.76    166478.48    0.8094466   0.21057996   0.22787177   0.41596611 
 4980000    304.22118    304.02957   -67.839125   -182991.65    811.09013   -182180.56     166478.6   0.80921068   0.21052385   0.22786278   0.41586577 
 4982000    307.72742    308.75192    110.52864   -183004.46    823.68842   -182180.77    166493.65   0.80890998   0.21068604   0.22778465   0.41579355 
 4984000    307.58688    307.63925   -74.888114   -183001.47    820.72002   -182180.75    166300.08    0.8101236    0.2105457   0.22783885   0.41616938 
 4986000     308.5876      308.792   -94.409624   -183004.48    823.79533   -182180.68    166084.68   0.81182774   0.21071731   0.22776379   0.41676961 
 4988000    309.10718    308.67281    13.868139   -183004.13    823.47738   -182180.65     165558.5   0.81275061   0.21075692   0.22786806    0.4171252 
 4990000    305.59702    305.61786   -88.683517   -182995.95    815.32736   -182180.62    165196.27   0.81286359   0.21083671   0.22785503   0.41718511 
 4992000    309.19161    308.42051    4.2284155   -183003.45    822.80427   -182180.64    164966.82   0.81269044   0.21087463   0.22870011   0.41742173 
 4994000    309.93988    309.91811    255.01301   -183007.32    826.79956   -182180.52    165141.61   0.81275712   0.21088191   0.22833682   0.41732528 
 4996000    308.59995    308.21761   -175.49073   -183002.89    822.26297   -182180.63    165221.22   0.81260402   0.21080919   0.22836685   0.41726002 
 4998000    307.77561    308.01434    12.627942   -183002.36     821.7207   -182180.64     165369.4   0.81228461   0.21076006   0.22822096   0.41708854 
 5000000    306.68412    308.43283    57.795151   -183003.43    822.83715   -182180.59    165675.07   0.81199516    0.2106504   0.22815131   0.41693229 
Loop time of 220574 on 64 procs for 5000000 steps with 24000 atoms

Performance: 1.959 ns/day, 12.254 hours/ns, 22.668 timesteps/s
96.2% CPU use with 64 MPI tasks x no OpenMP threads

MPI task timing breakdown:
Section |  min time  |  avg time  |  max time  |%varavg| %total
---------------------------------------------------------------
Pair    | 12.993     | 40973      | 1.2715e+05 |26250.9 | 18.58
Bond    | 4.9644     | 1653.8     | 8914.1     |6893.1 |  0.75
Kspace  | 57423      | 1.447e+05  | 1.8871e+05 |14395.8 | 65.60
Neigh   | 5542       | 5760.2     | 5982.3     | 241.0 |  2.61
Comm    | 53.764     | 6761.6     | 12046      |6351.9 |  3.07
Output  | 1199.7     | 1216.2     | 1370.5     |  59.2 |  0.55
Modify  | 10094      | 12015      | 14873      |1273.2 |  5.45
Other   |            | 7498       |            |       |  3.40

Nlocal:    375 ave 1332 max 0 min
Histogram: 40 0 0 0 0 1 13 2 1 7
Nghost:    3079.05 ave 10047 max 0 min
Histogram: 24 16 0 0 0 12 4 0 0 8
Neighs:    100913 ave 540397 max 0 min
Histogram: 40 5 3 2 6 0 0 1 4 3

Total # of neighbors = 6458409
Ave neighs/atom = 269.1
Ave special neighs/atom = 6
Neighbor list builds = 114955
Dangerous builds = 0
undump             3
write_data 		   nve.data
PPPM initialization ...
  using 12-bit tables for long-range coulomb (../kspace.cpp:321)
  G vector (1/distance) = 0.272888
  grid = 45 45 90
  stencil order = 5
  estimated absolute RMS force accuracy = 0.00139845
  estimated relative force accuracy = 9.71167e-05
  using double precision FFTs
  3d grid and FFT values/proc = 9396 4050
Neighbor list info ...
  update every 1 steps, delay 0 steps, check yes
  max neighbors/atom: 10000, page size: 100000
  master list distance cutoff = 13
  ghost atom cutoff = 13
  binsize = 6.5, bins = 11 11 29
  4 neighbor lists, perpetual/occasional/extra = 4 0 0
  (1) pair lj/cut/coul/long, perpetual, skip from (4)
      attributes: half, newton on
      pair build: skip
      stencil: none
      bin: none
  (2) pair buck/coul/long, perpetual, skip from (4)
      attributes: half, newton on
      pair build: skip
      stencil: none
      bin: none
  (3) pair table, perpetual, skip from (4)
      attributes: half, newton on
      pair build: skip
      stencil: none
      bin: none
  (4) neighbor class addition, perpetual
      attributes: half, newton on
      pair build: half/bin/newton
      stencil: half/bin/3d/newton
      bin: standard
write_restart 	   nve.rst
PPPM initialization ...
  using 12-bit tables for long-range coulomb (../kspace.cpp:321)
  G vector (1/distance) = 0.272888
  grid = 45 45 90
  stencil order = 5
  estimated absolute RMS force accuracy = 0.00139845
  estimated relative force accuracy = 9.71167e-05
  using double precision FFTs
  3d grid and FFT values/proc = 9396 4050
Neighbor list info ...
  update every 1 steps, delay 0 steps, check yes
  max neighbors/atom: 10000, page size: 100000
  master list distance cutoff = 13
  ghost atom cutoff = 13
  binsize = 6.5, bins = 11 11 29
  4 neighbor lists, perpetual/occasional/extra = 4 0 0
  (1) pair lj/cut/coul/long, perpetual, skip from (4)
      attributes: half, newton on
      pair build: skip
      stencil: none
      bin: none
  (2) pair buck/coul/long, perpetual, skip from (4)
      attributes: half, newton on
      pair build: skip
      stencil: none
      bin: none
  (3) pair table, perpetual, skip from (4)
      attributes: half, newton on
      pair build: skip
      stencil: none
      bin: none
  (4) neighbor class addition, perpetual
      attributes: half, newton on
      pair build: half/bin/newton
      stencil: half/bin/3d/newton
      bin: standard
Total wall time: 61:16:15
